28
 energy: -51.229448312938 gnorm: 0.000624877743 xtb: 6.7.1 (edcfbbe)
N           -0.20781413849691        0.43637984785599        0.20375275186819
C           -0.15902215500748        0.26692860240525        1.53700111339252
C            1.07601360353860        0.13408694694415        2.20166367798540
C            1.12312787694578       -0.02480937935512        3.56605762305623
C           -1.34073333434176        0.22214910260931        2.30183780791657
C           -1.28749855103902        0.05905115821306        3.66610622682571
C           -0.05736483024404       -0.06295302611780        4.29299640733280
S            0.03595564185355       -0.19981726981097        6.04435492161174
N            0.37099169309645        1.35289351587681        6.61620078497312
C           -0.46446168769498        2.38618604497457        6.27205937734155
C           -1.88041316601783        2.33047983127210        6.17346779481033
C           -2.23463236413785        3.60547293983341        5.84009011316789
O           -1.12420915658060        4.36049192775555        5.74858605006296
N           -0.02222071503982        3.59717377654914        6.01188768050521
C           -3.54219316079494        4.24571878316248        5.57780470547623
O           -1.23810503897786       -0.59809996666755        6.59951345551991
O            1.18495543527020       -0.97933678923392        6.45007849906653
H            0.63844710468855        0.43410473806127       -0.33605796087848
H           -1.09258943894315        0.49863004918146       -0.26511711065811
H            1.99003479023867        0.15843452952527        1.63075525310901
H            2.05714536510375       -0.14013772114692        4.09184280662330
H           -2.29468064568426        0.31397104452059        1.80848810476472
H           -2.18151901216657        0.00734471416488        4.26527813478489
H            1.35284793621497        1.58717625571707        6.59854676781631
H           -2.49102886390284        1.47331588720976        6.35194369138974
H           -4.33695952790426        3.52317563057392        5.72379939522514
H           -3.56859416886842        4.62386775417268        4.55832594561387
H           -3.68078433709908        5.08893872374355        6.25056633266776
