12
1: ben-BN S0 PBE0/6-31G(d), Shizu et al. Commun. Chem. 2026 SI Table 9
N      0.000000     1.407318     0.000000
H      0.000000     2.416612     0.000000
N      1.218774    -0.703659     0.000000
H      2.092847    -1.208306     0.000000
N     -1.218774    -0.703659     0.000000
H     -2.092847    -1.208306     0.000000
B      1.253408     0.723655     0.000000
H      2.292570     1.323616     0.000000
B     -1.253408     0.723655     0.000000
H     -2.292570     1.323616     0.000000
B      0.000000    -1.447311     0.000000
H      0.000000    -2.647232     0.000000
