12
12: ben-GaN S0 PBE0/6-31G(d), Shizu et al. Commun. Chem. 2026 SI Table 54
N      0.000000     1.772453     0.000000
H      0.000000     2.786042     0.000000
N      1.534989    -0.886227     0.000000
H      2.412783    -1.393021     0.000000
N     -1.534989    -0.886227     0.000000
H     -2.412783    -1.393021     0.000000
H      2.984445     1.723070     0.000000
H     -2.984445     1.723070     0.000000
H      0.000000    -3.446141     0.000000
Ga    -1.640907     0.947378     0.000000
Ga     0.000000    -1.894756     0.000000
Ga     1.640907     0.947378     0.000000
