12
13: prism-GaN S0 PBE0/6-31G(d), Shizu et al. Commun. Chem. 2026 SI Table 55
H     -1.210354     1.895099     1.120418
H     -0.517124    -1.163737    -2.684268
H      1.881855    -1.310704     0.000000
H     -0.517124    -1.163737     2.684268
H      2.232208     2.378104     0.000000
H     -1.210354     1.895099    -1.120418
Ga    -0.607977    -0.834382     1.155810
Ga    -0.607977    -0.834382    -1.155810
Ga     1.219467     1.210072     0.000000
N      1.106241    -0.658325     0.000000
N     -0.607977     1.164114    -0.756670
N     -0.607977     1.164114     0.756670
