12
14: ben-B4N2 S0 PBE0/6-31G(d), Shizu et al. Commun. Chem. 2026 SI Table 56
H      0.000000     2.247250     1.545980
H      0.000000    -2.247250     1.545980
N      0.000000     0.000000    -1.546204
H      0.000000     0.000000    -2.561292
H      0.000000     0.000000     2.561292
H      0.000000     2.247250    -1.545980
B      0.000000    -1.254354    -0.864431
H      0.000000    -2.247250    -1.545980
B      0.000000     1.254354    -0.864431
B      0.000000     1.254354     0.864431
B      0.000000    -1.254354     0.864431
N      0.000000     0.000000     1.546204
