12
15: ben-BP S0 PBE0/6-31G(d), Shizu et al. Commun. Chem. 2026 SI Table 57
B      1.615714     0.932833     0.094697
H      2.645063     1.527128     0.186565
B      0.000000    -1.865666     0.094697
H      0.000000    -3.054256     0.186565
B     -1.615714     0.932833     0.094697
H     -2.645063     1.527128     0.186565
H      2.746172    -1.585503     0.238368
H      0.000000     3.171006     0.238368
H     -2.746172    -1.585503     0.238368
P      0.000000     1.799659    -0.059894
P     -1.558550    -0.899829    -0.059894
P      1.558550    -0.899829    -0.059894
