12
16: ben-NP S0 PBE0/6-31G(d), Shizu et al. Commun. Chem. 2026 SI Table 58
H      2.181815     1.259672     1.086871
H      2.181815     1.259672    -1.086871
H     -2.181815     1.259672     1.086871
H     -2.181815     1.259672    -1.086871
H      0.000000    -2.519343     1.086871
H      0.000000    -2.519343    -1.086871
P      1.401566     0.809195     0.000000
P     -1.401566     0.809195     0.000000
P      0.000000    -1.618389     0.000000
N      0.000000     1.601164     0.000000
N     -1.386649    -0.800582     0.000000
N      1.386649    -0.800582     0.000000
