12
17: ring-Ga3P3 S0 PBE0/6-31G(d), Shizu et al. Commun. Chem. 2026 SI Table 59
H     -2.802357    -1.617941    -1.144840
H     -2.846120     1.643208    -0.359599
H      0.000000     3.235883    -1.144840
H      0.000000    -3.286417    -0.359599
H      2.802357    -1.617941    -1.144840
H      2.846120     1.643208    -0.359599
Ga     0.000000     1.964182    -0.242233
Ga     1.701031    -0.982091    -0.242233
Ga    -1.701031    -0.982091    -0.242233
P      1.938163     1.118999     0.600910
P      0.000000    -2.237998     0.600910
P     -1.938163     1.118999     0.600910
