12
18: ben-AlN S0 PBE0/6-31G(d), Shizu et al. Commun. Chem. 2026 SI Table 60
N      0.000000     1.749891     0.000000
H      0.000000     2.764834     0.000000
N      1.515450    -0.874946     0.000000
H      2.394417    -1.382417     0.000000
N     -1.515450    -0.874946     0.000000
H     -2.394417    -1.382417     0.000000
H      2.972508     1.716178     0.000000
H     -2.972508     1.716178     0.000000
H      0.000000    -3.432356     0.000000
Al    -1.594717     0.920710     0.000000
Al     0.000000    -1.841420     0.000000
Al     1.594717     0.920710     0.000000
