12
19: ring-Al3P3 S0 PBE0/6-31G(d), Shizu et al. Commun. Chem. 2026 SI Table 61
P      0.257968     2.167389     0.000000
Al    -0.314228     1.026741     1.900085
P     -0.314228    -1.281983    -1.907960
Al    -0.314228     1.026741    -1.900085
P     -0.314228    -1.281983     1.907960
Al     0.906056    -1.720434     0.000000
H     -0.596443     1.836284     3.238726
H     -0.452338     3.392746     0.000000
H     -0.596443     1.836284    -3.238726
H      0.652609    -1.469144    -2.935004
H      2.288543    -2.508017     0.000000
H      0.652609    -1.469144     2.935004
