12
20: ring-Al3As3 S0 PBE0/6-31G(d), Shizu et al. Commun. Chem. 2026 SI Table 62
As     0.481823     2.261790     0.000000
Al    -0.335643     1.094129     1.887562
As    -0.335643    -1.296176    -1.972679
Al    -0.335643     1.094129    -1.887562
As    -0.335643    -1.296176     1.972679
Al     0.976372    -1.553078     0.000000
H     -0.744828     1.933618     3.177084
H     -0.320765     3.561474     0.000000
H     -0.744828     1.933618    -3.177084
H      0.810281    -1.343115    -2.992892
H      2.476016    -2.091242     0.000000
H      0.810281    -1.343115     2.992892
