24
21: ring-(Si(N2CH3))3P3 S0 PBE0/6-31G(d), Shizu et al. Commun. Chem. 2026 SI Table 63
P      2.089301     0.747089     0.000000
P     -1.156951    -0.481899     1.996859
P     -1.156951    -0.481899    -1.996859
Si     0.915371     0.015028    -1.661801
Si     0.915371     0.015028     1.661801
Si    -1.896474    -0.110784     0.000000
C      2.207828    -0.120826    -3.623701
C      2.207828    -0.120826     3.623701
C     -4.164405     0.498178     0.000000
H      1.759988     1.893348     3.497605
H      2.814112    -0.171751     4.529539
H      2.165890    -2.085413     2.992787
H      2.814112    -0.171751    -4.529539
H      2.165890    -2.085413    -2.992787
H      1.759988     1.893348    -3.497605
H     -3.251715     2.345411     0.000000
H     -5.225730     0.751748     0.000000
H     -4.209246    -1.574781     0.000000
N      1.931693    -1.121841     2.818367
N      1.625472     0.959960     3.145359
N     -3.668414    -0.726518     0.000000
N     -3.161849     1.342700     0.000000
N      1.931693    -1.121841    -2.818367
N      1.625472     0.959960    -3.145359
