24
22: ring-(Si(N2CH3))3As3 S0 PBE0/6-31G(d), Shizu et al. Commun. Chem. 2026 SI Table 64
As     0.000124    -2.439831     0.000000
As     0.000104     1.220059     2.113118
As     0.000104     1.220059    -2.113118
Si    -0.000065    -0.983376    -1.703481
Si    -0.000065    -0.983376     1.703481
Si     0.000109     1.966832     0.000000
C     -0.000168    -2.165965    -3.750706
C     -0.000168    -2.165965     3.750706
C     -0.000179     4.331122     0.000000
H      2.016741    -1.940422     3.360149
H     -0.000230    -2.712065     4.695534
H     -2.017008    -1.940579     3.360070
H     -0.000230    -2.712065    -4.695534
H     -2.017008    -1.940579    -3.360070
H      2.016741    -1.940422    -3.360149
H      2.016713     3.880252     0.000000
H     -0.000179     5.422418     0.000000
H     -2.016994     3.880225     0.000000
N     -1.063617    -1.778560     3.080702
N      1.063321    -1.778859     3.080629
N     -1.063622     3.557217     0.000000
N      1.063336     3.557264     0.000000
N     -1.063617    -1.778560    -3.080702
N      1.063321    -1.778859    -3.080629
