18
2a: naph-BN S0 PBE0/6-31G(d), Shizu et al. Commun. Chem. 2026 SI Table 10
B      0.000000     1.251777     1.459668
N      0.000000     0.000000     0.744317
B      0.000000    -1.251777     1.459668
B      0.000000     0.000000    -0.709957
N      0.000000    -1.261720    -1.397079
B      0.000000    -2.507648    -0.710363
N      0.000000    -2.467973     0.718731
N      0.000000     2.467973     0.718731
B      0.000000     2.507648    -0.710363
N      0.000000     1.261720    -1.397079
H      0.000000     3.548248    -1.308319
H      0.000000     3.339176     1.228458
H      0.000000     1.268652     2.658560
H      0.000000    -1.268652     2.658560
H      0.000000    -3.339176     1.228458
H      0.000000    -3.548248    -1.308319
H      0.000000    -1.277313    -2.407010
H      0.000000     1.277313    -2.407010
