24
2b: anth-BN S0 PBE0/6-31G(d), Shizu et al. Commun. Chem. 2026 SI Table 11
B      0.000000     2.498899    -1.467212
H      0.000000     2.510761    -2.665555
B      0.000000     0.000000    -1.458884
H      0.000000     0.000000    -2.656463
B      0.000000    -2.498899    -1.467212
H      0.000000    -2.510761    -2.665555
B      0.000000     3.763164     0.697815
H      0.000000     4.806100     1.291366
B      0.000000     1.255135     0.709193
B      0.000000    -1.255135     0.709193
B      0.000000    -3.763164     0.697815
H      0.000000    -4.806100     1.291366
N      0.000000     2.520291     1.390656
H      0.000000     2.541489     2.400440
N      0.000000     0.000000     1.398152
H      0.000000     0.000000     2.409010
N      0.000000    -2.520291     1.390656
H      0.000000    -2.541489     2.400440
N      0.000000     3.718187    -0.731077
H      0.000000     4.587596    -1.243772
N      0.000000     1.249682    -0.745872
N      0.000000    -1.249682    -0.745872
N      0.000000    -3.718187    -0.731077
H      0.000000    -4.587596    -1.243772
