24
2c: phenan-BN S0 PBE0/6-31G(d), Shizu et al. Commun. Chem. 2026 SI Table 12
H     -3.123862     2.160758     0.000000
H     -2.210762    -2.652564     0.000000
H      2.415011    -3.946243     0.000000
H     -0.103561    -4.005461     0.000000
H      2.654607     0.229059     0.000000
H      3.969367    -1.927964     0.000000
H     -3.194964    -0.353248     0.000000
H     -1.982673     4.419324     0.000000
H      0.551285     4.146482     0.000000
H      1.926403     2.083470     0.000000
B     -1.409333     3.365520     0.000000
B     -1.452244     0.856766     0.000000
B      0.724877     2.054903     0.000000
B     -1.555012    -1.648862     0.000000
B      0.669755    -0.485148     0.000000
B      0.541731    -2.994580     0.000000
B      2.770725    -1.864818     0.000000
N     -2.114346     2.132400     0.000000
N      0.018202     3.289639     0.000000
N      0.000000     0.812460     0.000000
N     -2.185256    -0.378230     0.000000
N     -0.115109    -1.709927     0.000000
N      2.097315    -0.612681     0.000000
N      1.963002    -3.044020     0.000000
