30
2d: tetra-BN S0 PBE0/6-31G(d), Shizu et al. Commun. Chem. 2026 SI Table 13
B      0.000000     3.745999     1.475837
H      0.000000     3.753296     2.674107
B      0.000000     1.247026     1.457438
H      0.000000     1.242148     2.654515
B      0.000000    -1.247026     1.457438
H      0.000000    -1.242148     2.654515
B      0.000000     5.018612    -0.684256
H      0.000000     6.063663    -1.274122
B      0.000000     2.510752    -0.705234
B      0.000000     0.000000    -0.717886
B      0.000000    -2.510752    -0.705234
N      0.000000     3.778190    -1.382035
H      0.000000     3.803467    -2.391688
N      0.000000     1.258666    -1.400253
H      0.000000     1.265392    -2.411054
N      0.000000    -1.258666    -1.400253
H      0.000000    -1.265392    -2.411054
N      0.000000     4.968308     0.744193
H      0.000000     5.835775     1.260157
N      0.000000     2.499853     0.749537
N      0.000000     0.000000     0.738225
H      0.000000    -5.835775     1.260157
H      0.000000    -3.803467    -2.391688
B      0.000000    -3.745999     1.475837
H      0.000000    -3.753296     2.674107
B      0.000000    -5.018612    -0.684256
H      0.000000    -6.063663    -1.274122
N      0.000000    -2.499853     0.749537
N      0.000000    -4.968308     0.744193
N      0.000000    -3.778190    -1.382035
