30
2e: cryc-BN S0 PBE0/6-31G(d), Shizu et al. Commun. Chem. 2026 SI Table 14
H      4.625097    -0.881071     0.000000
H      1.270920     2.650144     0.000000
H     -1.251606    -2.415816     0.000000
H     -3.530474    -1.386384     0.000000
H      3.306481     1.270691     0.000000
H      4.894333    -3.397760     0.000000
H      2.616818    -4.544208     0.000000
H      0.345840    -3.562518     0.000000
B      3.840673    -2.825031     0.000000
B      2.512947    -0.698397     0.000000
B      1.336001    -2.882702     0.000000
B      1.226209     1.449660     0.000000
B      0.000000    -0.719761     0.000000
B     -2.513977    -0.750605     0.000000
N      3.762423    -1.406377     0.000000
N      2.600445    -3.535063     0.000000
N      1.268483    -1.444930     0.000000
N      2.449997     0.735439     0.000000
N     -0.021417     0.735222     0.000000
N     -1.257350    -1.406353     0.000000
N     -2.547585     0.689268     0.000000
H     -0.541203     3.407998     0.000000
H     -2.661037     4.774154     0.000000
H     -4.719729     3.273478     0.000000
H     -4.841360     0.756026     0.000000
B     -1.302660     1.438261     0.000000
B     -2.629566     3.574217     0.000000
B     -3.815573     1.376122     0.000000
N     -1.394736     2.869645     0.000000
N     -3.829453     2.798356     0.000000
