26
2f: pyr-BN S0 PBE0/6-31G(d), Shizu et al. Commun. Chem. 2026 SI Table 15
B      0.000000     1.253173     2.911643
N      0.000000     1.257196     1.472699
B      0.000000     2.505660     0.748251
B      0.000000     0.000000     0.745241
N      0.000000     0.000000    -0.698383
B      0.000000     1.252120    -1.424667
N      0.000000     2.476272    -0.670074
N      0.000000     0.000000     3.590451
B      0.000000    -1.253173     2.911643
N      0.000000    -1.257196     1.472699
B      0.000000    -2.505660     0.748251
N      0.000000    -2.476272    -0.670074
B      0.000000    -1.252120    -1.424667
N      0.000000    -1.219556    -2.859488
B      0.000000     0.000000    -3.596984
N      0.000000     1.219556    -2.859488
H      0.000000    -3.360382    -1.158556
H      0.000000    -2.086629    -3.376935
H      0.000000     0.000000    -4.797164
H      0.000000     2.086629    -3.376935
H      0.000000     0.000000     4.600117
H      0.000000     2.281533     3.527647
H      0.000000     3.550898     1.335389
H      0.000000     3.360382    -1.158556
H      0.000000    -3.550898     1.335389
H      0.000000    -2.281533     3.527647
