22
2g: phenal-NB S0 PBE0/6-31G(d), Shizu et al. Commun. Chem. 2026 SI Table 16
B      1.249868     2.168447     0.000000
N      0.000000     1.450864     0.000000
B     -1.249868     2.168447     0.000000
B      0.000000     0.000000     0.000000
N     -1.256485    -0.725432     0.000000
B     -2.502864    -0.001806     0.000000
N     -2.463021     1.422026     0.000000
N      2.463021     1.422026     0.000000
B      2.502864    -0.001806     0.000000
N      1.256485    -0.725432     0.000000
B      1.252996    -2.166641     0.000000
N      0.000000    -2.844052     0.000000
B     -1.252996    -2.166641     0.000000
H      0.000000    -3.854025     0.000000
H      2.281599    -2.780974     0.000000
H      3.549193    -0.585436     0.000000
H      3.337683     1.927012     0.000000
H      1.267594     3.366410     0.000000
H     -1.267594     3.366410     0.000000
H     -3.337683     1.927012     0.000000
H     -3.549193    -0.585436     0.000000
H     -2.281599    -2.780974     0.000000
