22
2h: phenal-BN S0 PBE0/6-31G(d), Shizu et al. Commun. Chem. 2026 SI Table 17
N      1.262129     2.136437     0.000000
B      0.000000     1.447659     0.000000
N     -1.262129     2.136437     0.000000
N      0.000000     0.000000     0.000000
B     -1.253709    -0.723829     0.000000
N     -2.481273     0.024817     0.000000
B     -2.509838     1.449055     0.000000
B      2.509838     1.449055     0.000000
N      2.481273     0.024817     0.000000
B      1.253709    -0.723829     0.000000
N      1.219144    -2.161254     0.000000
B      0.000000    -2.898111     0.000000
N     -1.219144    -2.161254     0.000000
H      0.000000    -4.098191     0.000000
H      2.086509    -2.678221     0.000000
H      3.362662    -0.467860     0.000000
H      3.549138     2.049096     0.000000
H      1.276153     3.146081     0.000000
H     -1.276153     3.146081     0.000000
H     -3.549138     2.049096     0.000000
H     -3.362662    -0.467860     0.000000
H     -2.086509    -2.678221     0.000000
