30
2i: olymp-NB S0 PBE0/6-31G(d), Shizu et al. Commun. Chem. 2026 SI Table 18
N      0.000000     1.262579     2.728033
B      0.000000     0.000000     2.044653
N      0.000000    -1.262579     2.728033
N      0.000000     0.000000     0.597326
B      0.000000    -1.251883    -0.121769
N      0.000000    -2.509179     0.601171
B      0.000000    -2.507132     2.044687
B      0.000000     2.507132     2.044687
N      0.000000     2.509179     0.601171
B      0.000000     1.251883    -0.121769
N      0.000000     1.247230    -1.573020
B      0.000000     0.000000    -2.289264
N      0.000000    -1.247230    -1.573020
B      0.000000     3.752639    -0.125096
N      0.000000     3.710169    -1.549720
B      0.000000     2.496275    -2.294418
B      0.000000    -2.496275    -2.294418
N      0.000000    -3.710169    -1.549720
B      0.000000    -3.752639    -0.125096
H      0.000000     0.000000    -3.486273
H      0.000000     4.800847     0.455473
H      0.000000     4.583877    -2.055982
H      0.000000     2.511621    -3.491951
H      0.000000    -2.511621    -3.491951
H      0.000000    -4.583877    -2.055982
H      0.000000    -4.800847     0.455473
H      0.000000     3.537196     2.656202
H      0.000000     1.280599     3.738011
H      0.000000    -1.280599     3.738011
H      0.000000    -3.537196     2.656202
