30
2j: olymp-BN S0 PBE0/6-31G(d), Shizu et al. Commun. Chem. 2026 SI Table 19
B      0.000000     1.249695    -2.796936
N      0.000000     0.000000    -2.079855
B      0.000000    -1.249695    -2.796936
B      0.000000     0.000000    -0.625197
N      0.000000    -1.252873     0.095692
B      0.000000    -2.505782    -0.626111
N      0.000000    -2.464891    -2.063321
N      0.000000     2.464891    -2.063321
B      0.000000     2.505782    -0.626111
N      0.000000     1.252873     0.095692
B      0.000000     1.255956     1.544830
N      0.000000     0.000000     2.233563
B      0.000000    -1.255956     1.544830
N      0.000000     3.735114     0.117389
B      0.000000     3.766094     1.541645
N      0.000000     2.519794     2.230990
N      0.000000    -2.519794     2.230990
B      0.000000    -3.766094     1.541645
N      0.000000    -3.735114     0.117389
H      0.000000     0.000000     3.244089
H      0.000000     4.614809    -0.378140
H      0.000000     4.806937     2.140497
H      0.000000     2.536585     3.240492
H      0.000000    -2.536585     3.240492
H      0.000000    -4.806937     2.140497
H      0.000000    -4.614809    -0.378140
H      0.000000     3.329412    -2.585639
H      0.000000     1.265887    -3.996636
H      0.000000    -1.265887    -3.996636
H      0.000000    -3.329412    -2.585639
