42
2k: bis-BN S0 PBE0/6-31G(d), Shizu et al. Commun. Chem. 2026 SI Table 20
N      0.000000     1.244816    -2.924689
B      0.000000     1.253414    -1.470245
N      0.000000     0.000000    -0.750618
B      0.000000    -1.253414    -1.470245
N      0.000000    -1.244816    -2.924689
B      0.000000     0.000000    -3.639557
B      0.000000     0.000000     0.700812
N      0.000000    -1.255642     1.416380
B      0.000000    -2.513839     0.702514
N      0.000000    -2.516616    -0.758478
N      0.000000     2.516616    -0.758478
B      0.000000     2.513839     0.702514
N      0.000000     1.255642     1.416380
B      0.000000     1.254970     2.869491
N      0.000000     0.000000     3.554601
B      0.000000    -1.254970     2.869491
B      0.000000    -3.740532    -1.510243
N      0.000000    -3.698312    -2.932618
B      0.000000    -2.479202    -3.664983
B      0.000000     2.479202    -3.664983
N      0.000000     3.698312    -2.932618
B      0.000000     3.740532    -1.510243
N      0.000000     3.726612     1.464587
B      0.000000     3.756525     2.887375
N      0.000000     2.508140     3.568996
N      0.000000    -2.508140     3.568996
B      0.000000    -3.756525     2.887375
N      0.000000    -3.726612     1.464587
H      0.000000     0.000000    -4.836617
H      0.000000     0.000000     4.565035
H      0.000000    -4.814928    -0.974003
H      0.000000    -4.570780    -3.440527
H      0.000000    -2.480564    -4.862474
H      0.000000     2.480564    -4.862474
H      0.000000     4.570780    -3.440527
H      0.000000     4.814928    -0.974003
H      0.000000     4.605860     0.969754
H      0.000000     4.795608     3.488609
H      0.000000     2.513493     4.578555
H      0.000000    -2.513493     4.578555
H      0.000000    -4.795608     3.488609
H      0.000000    -4.605860     0.969754
