72
3: (6, 6)NB-BN S0 PBE0/6-31G(d), Shizu et al. Commun. Chem. 2026 SI Table 21
B      0.000000     4.159835     0.020985
B     -2.066101     3.647817    -1.260611
H     -2.630134     3.535081    -2.316144
B     -2.092197     3.614681     1.222106
B     -3.612333     2.115018     2.491302
H     -4.004971     1.684627     3.539095
B     -3.602523     2.079917    -0.020985
B     -4.192152     0.034613     1.260611
H     -4.376537    -0.510223     2.316144
B     -4.176504    -0.004556    -1.222106
B     -3.602523    -2.079917     0.020985
B     -3.637826    -2.070863    -2.491302
H     -3.461415    -2.626094    -3.539095
B     -2.084307    -3.619236     1.222106
B     -2.126052    -3.613204    -1.260611
H     -1.746402    -4.045303    -2.316144
B     -0.025493    -4.185881     2.491302
H      0.543556    -4.310720     3.539095
B      0.000000    -4.159835    -0.020985
B      2.066101    -3.647817     1.260611
H      2.630134    -3.535081     2.316144
B      2.092197    -3.614681    -1.222106
B      3.602523    -2.079917     0.020985
B      3.612333    -2.115018    -2.491302
H      4.004971    -1.684627    -3.539095
B      4.176504     0.004556     1.222106
B      4.192152    -0.034613    -1.260611
H      4.376537     0.510223    -2.316144
B      3.637826     2.070863     2.491302
H      3.461415     2.626094     3.539095
B      3.602523     2.079917    -0.020985
B      2.126052     3.613204     1.260611
H      1.746402     4.045303     2.316144
B      2.084307     3.619236    -1.222106
B      0.025493     4.185881    -2.491302
H     -0.543556     4.310720    -3.539095
N     -0.802481     4.234757     1.208069
H     -0.318811     4.326200     2.091501
N     -0.714991     4.122390    -1.249745
N     -2.698471     3.214707    -0.039327
N     -2.767815     3.252935     2.444546
H     -2.454721     3.642856     3.322439
N     -3.927590     1.441995     1.249745
N     -4.068648     1.422410    -1.208069
H     -3.906005     1.887001    -2.091501
N     -4.133253    -0.729591     0.039327
N     -4.201032    -0.770530    -2.444546
H     -4.382167    -0.304423    -3.322439
N     -3.212599    -2.680396    -1.249745
N     -3.266167    -2.812347     1.208069
H     -3.587193    -2.439199     2.091501
N     -1.434782    -3.944298    -0.039327
N     -1.433217    -4.023466     2.444546
H     -1.927445    -3.947279     3.322439
N      0.714991    -4.122390     1.249745
N      2.698471    -3.214707     0.039327
N      0.802481    -4.234757    -1.208069
H      0.318811    -4.326200    -2.091501
N      2.767815    -3.252935    -2.444546
H      2.454721    -3.642856    -3.322439
N      3.927590    -1.441995    -1.249745
N      4.068648    -1.422410     1.208069
H      3.906005    -1.887001     2.091501
N      4.201032     0.770530     2.444546
H      4.382167     0.304423     3.322439
N      4.133253     0.729591    -0.039327
N      3.212599     2.680396     1.249745
N      3.266167     2.812347    -1.208069
H      3.587193     2.439199    -2.091501
N      1.434782     3.944298     0.039327
N      1.433217     4.023466    -2.444546
H      1.927445     3.947279    -3.322439
