50
4d: [5]CPP-BN S0 PBE0/6-31G(d), Shizu et al. Commun. Chem. 2026 SI Table 22
H     -3.612394     1.059571     2.293103
H     -2.077122     2.988948    -2.096937
H     -3.612394     1.059571    -2.293103
H      3.545288     1.266101     2.293103
H      3.437286    -1.197208    -2.096937
H     -2.124003    -3.108166    -2.293103
H     -2.077122     2.988948     2.096937
H      2.200792     2.899096    -2.096937
H      2.299688    -2.980523    -2.293103
H     -3.484524    -1.051825     2.096937
H      3.437286    -1.197208     2.096937
H     -0.108580     3.763016    -2.293103
H      3.545288     1.266101    -2.293103
H     -0.076432    -3.639011    -2.096937
H      2.200792     2.899096     2.096937
H     -2.124003    -3.108166     2.293103
H     -3.484524    -1.051825    -2.096937
H     -0.076432    -3.639011     2.096937
H     -0.108580     3.763016     2.293103
H      2.299688    -2.980523     2.293103
B      3.157630    -1.440970     0.000000
B      3.459446     0.701409     1.235025
B      3.459446     0.701409    -1.235025
B      2.346206     2.557800     0.000000
B      0.401948     3.506876     1.235025
B      0.401948     3.506876    -1.235025
B     -1.707595     3.021778     0.000000
B     -3.211029     1.465960     1.235025
B     -3.211029     1.465960    -1.235025
B     -3.401557    -0.690239     0.000000
B     -2.386473    -2.600863     1.235025
B     -2.386473    -2.600863    -1.235025
B     -0.394683    -3.448369     0.000000
B      1.736107    -3.073382     1.235025
B      1.736107    -3.073382    -1.235025
N      2.382558    -2.668644     0.000000
N      3.471393    -0.715116     1.209697
N      3.471393    -0.715116    -1.209697
N      3.274282     1.441291     0.000000
N      1.752835     3.080508     1.209697
N      1.752835     3.080508    -1.209697
N     -0.358941     3.559411     0.000000
N     -2.388082     2.618975     1.209697
N     -2.388082     2.618975    -1.209697
N     -3.496119     0.758546     0.000000
N     -3.228751    -1.461893     1.209697
N     -3.228751    -1.461893    -1.209697
N     -1.801780    -3.090604     0.000000
N      0.392604    -3.522474     1.209697
N      0.392604    -3.522474    -1.209697
