60
4e: [6]CPP-BN S0 PBE0/6-31G(d), Shizu et al. Commun. Chem. 2026 SI Table 23
H      1.016336    -4.308008     2.295261
H     -1.016497     4.308284     2.295210
H     -4.155470    -1.185559     2.096134
H     -3.104637     3.006249     2.096087
H      3.104459    -3.005963     2.096134
H     -3.222676    -3.034177    -2.295261
H      3.222676     3.034177     2.295261
H     -4.239012     1.273831     2.295261
H      1.051011     4.191522     2.096134
H     -1.051011    -4.191522    -2.096134
H      4.239332    -1.273829     2.295210
H      4.155806     1.185570     2.096087
H      1.016497    -4.308284    -2.295210
H     -1.016336     4.308008    -2.295261
H     -4.155806    -1.185570    -2.096087
H     -3.104459     3.005963    -2.096134
H      3.104637    -3.006249    -2.096087
H     -3.222835    -3.034455     2.295210
H      3.222835     3.034455    -2.295210
H     -4.239332     1.273829    -2.295210
H      1.051169     4.191818    -2.096087
H     -1.051169    -4.191818     2.096087
H      4.239012    -1.273831    -2.295261
H      4.155470     1.185559    -2.096134
B     -4.167930     0.713122     1.233973
B     -4.168094     0.713114    -1.233933
B     -3.923502    -1.445813     0.000010
B     -2.701622    -3.253118     1.233933
B     -2.701546    -3.252972    -1.233973
B     -0.709640    -4.120759    -0.000010
B      1.466383    -3.966094     1.233973
B      1.466472    -3.966232    -1.233933
B      3.213862    -2.674946     0.000010
B      4.168094    -0.713114     1.233933
B      4.167930    -0.713122    -1.233973
B      3.923502     1.445813    -0.000010
B      2.701546     3.252972     1.233973
B      2.701622     3.253118    -1.233933
B      0.709640     4.120759     0.000010
B     -1.466472     3.966232     1.233933
B     -1.466383     3.966094    -1.233973
B     -3.213862     2.674946    -0.000010
N     -0.742735     4.197997    -0.000003
N     -2.701622     3.272585     1.208964
N     -2.701546     3.272461    -1.209012
N     -4.006940     1.455771     0.000003
N     -4.184807    -0.703378     1.209012
N     -4.184952    -0.703381    -1.208964
N     -3.264204    -2.742226    -0.000003
N     -1.483330    -3.975965     1.208964
N     -1.483261    -3.975838    -1.209012
N      0.742735    -4.197997     0.000003
N      2.701546    -3.272461     1.209012
N      2.701622    -3.272585    -1.208964
N      4.006940    -1.455771    -0.000003
N      4.184952     0.703381     1.208964
N      4.184807     0.703378    -1.209012
N      3.264204     2.742226     0.000003
N      1.483261     3.975838     1.209012
N      1.483330     3.975965    -1.208964
