70
4f: [7]CPP-BN S0 PBE0/6-31G(d), Shizu et al. Commun. Chem. 2026 SI Table 24
H     -2.975886     4.029906     2.095244
H     -4.606958     2.190880     2.296590
H     -4.606958     2.190880    -2.296590
H     -2.975886     4.029906    -2.095244
H     -5.006142     0.185964     2.095244
H     -5.006142     0.185964    -2.095244
H     -4.585290    -2.235873     2.296590
H     -4.585290    -2.235873    -2.296590
H     -3.266671    -3.798013    -2.095244
H     -3.266671    -3.798013     2.095244
H     -1.110805    -4.978968    -2.296590
H     -1.110805    -4.978968     2.296590
H      0.932670    -4.922008     2.095244
H      0.932670    -4.922008    -2.095244
H      3.200138    -3.972798     2.296590
H      3.200138    -3.972798    -2.296590
H      4.429691    -2.339631    -2.095244
H      4.429691    -2.339631     2.095244
H      5.101312     0.024970    -2.296590
H      5.101312     0.024970     2.296590
H      4.591065     2.004536     2.095244
H      4.591065     2.004536    -2.095244
H      3.161094     4.003935     2.296590
H      3.161094     4.003935    -2.296590
H      1.295273     4.839247    -2.095244
H      1.295273     4.839247     2.095244
H     -1.159492     4.967856    -2.296590
H     -1.159492     4.967856     2.296590
B      1.559844     4.633100     0.000000
B     -0.603247     4.891398     1.233358
B     -0.603247     4.891398    -1.233358
B     -2.649756     4.108226     0.000000
B     -4.200367     2.578100     1.233358
B     -4.200367     2.578100    -1.233358
B     -4.864036     0.489774     0.000000
B     -4.634526    -1.676561     1.233358
B     -4.634526    -1.676561    -1.233358
B     -3.415598    -3.497488     0.000000
B     -1.578792    -4.668737     1.233358
B     -1.578792    -4.668737    -1.233358
B      0.604856    -4.851070     0.000000
B      2.665805    -4.145259     1.233358
B      2.665805    -4.145259    -1.233358
B      4.169840    -2.551697     0.000000
B      4.902996    -0.500316     1.233358
B      4.902996    -0.500316    -1.233358
B      4.594850     1.669155     0.000000
B      3.448131     3.521374     1.233358
B      3.448131     3.521374    -1.233358
N      4.318402     2.403839     1.208515
N      4.318402     2.403839    -1.208515
N      2.884675     4.029281     0.000000
N      0.813083     4.875032     1.208515
N      0.813083     4.875032    -1.208515
N     -1.351653     4.767545     0.000000
N     -3.304505     3.675226     1.208515
N     -3.304505     3.675226    -1.208515
N     -4.570159     1.915751     0.000000
N     -4.933733    -0.292100     1.208515
N     -4.933733    -0.292100    -1.208515
N     -4.347242    -2.378643     0.000000
N     -2.847759    -4.039469     1.208515
N     -2.847759    -4.039469    -1.208515
N     -0.850763    -4.881870     0.000000
N      1.382635    -4.745036     1.208515
N      1.382635    -4.745036    -1.208515
N      3.286358    -3.708950     0.000000
N      4.571877    -1.877494     1.208515
N      4.571877    -1.877494    -1.208515
N      4.948784     0.256886     0.000000
