80
4g: [8]CPP-BN S0 PBE0/6-31G(d), Shizu et al. Commun. Chem. 2026 SI Table 25
H      3.984412     4.075623     2.095128
H      5.397961     2.067752     2.297733
H      5.397961     2.067752    -2.297733
H      3.984412     4.075623    -2.095128
H      5.699305     0.064496     2.095128
H      5.699305     0.064496    -2.095128
H      5.279056    -2.354813     2.297733
H      5.279056    -2.354813    -2.297733
H      2.354813     5.279056    -2.297733
H      2.354813     5.279056     2.297733
H     -0.064496     5.699305    -2.095128
H     -0.064496     5.699305     2.095128
H      4.075623    -3.984412    -2.095128
H      4.075623    -3.984412     2.095128
H      2.067752    -5.397961    -2.297733
H      2.067752    -5.397961     2.297733
H      0.064496    -5.699305     2.095128
H      0.064496    -5.699305    -2.095128
H     -2.354813    -5.279056     2.297733
H     -2.354813    -5.279056    -2.297733
H     -3.984412    -4.075623    -2.095128
H     -3.984412    -4.075623     2.095128
H     -5.397961    -2.067752    -2.297733
H     -5.397961    -2.067752     2.297733
H     -5.699305    -0.064496     2.095128
H     -5.699305    -0.064496    -2.095128
H     -5.279056     2.354813     2.297733
H     -5.279056     2.354813    -2.297733
H     -4.075623     3.984412    -2.095128
H     -4.075623     3.984412     2.095128
H     -2.067752     5.397961    -2.297733
H     -2.067752     5.397961     2.297733
B     -0.368775     5.581731     0.000000
B      1.799343     5.333891    -1.232985
B      1.799343     5.333891     1.232985
B      3.686117     4.207643     0.000000
B      5.043958     2.499303    -1.232985
B      5.043958     2.499303     1.232985
B      5.581731     0.368775     0.000000
B      5.333891    -1.799343    -1.232985
B      5.333891    -1.799343     1.232985
B      4.207643    -3.686117     0.000000
B      2.499303    -5.043958    -1.232985
B      2.499303    -5.043958     1.232985
B      0.368775    -5.581731     0.000000
B     -1.799343    -5.333891    -1.232985
B     -1.799343    -5.333891     1.232985
B     -3.686117    -4.207643     0.000000
B     -5.043958    -2.499303    -1.232985
B     -5.043958    -2.499303     1.232985
B     -5.581731    -0.368775     0.000000
B     -5.333891     1.799343    -1.232985
B     -5.333891     1.799343     1.232985
B     -4.207643     3.686117     0.000000
B     -2.499303     5.043958    -1.232985
B     -2.499303     5.043958     1.232985
N     -3.686559     4.270902    -1.208298
N     -3.686559     4.270902     1.208298
N     -1.808015     5.353124     0.000000
N      0.413193     5.626775    -1.208298
N      0.413193     5.626775     1.208298
N      2.506771     5.063690     0.000000
N      4.270902     3.686559    -1.208298
N      4.270902     3.686559     1.208298
N      5.353124     1.808015     0.000000
N      5.626775    -0.413193    -1.208298
N      5.626775    -0.413193     1.208298
N      5.063690    -2.506771     0.000000
N      3.686559    -4.270902    -1.208298
N      3.686559    -4.270902     1.208298
N      1.808015    -5.353124     0.000000
N     -0.413193    -5.626775    -1.208298
N     -0.413193    -5.626775     1.208298
N     -2.506771    -5.063690     0.000000
N     -4.270902    -3.686559    -1.208298
N     -4.270902    -3.686559     1.208298
N     -5.353124    -1.808015     0.000000
N     -5.626775     0.413193    -1.208298
N     -5.626775     0.413193     1.208298
N     -5.063690     2.506771     0.000000
