90
4h: [9]CPP-BN S0 PBE0/6-31G(d), Shizu et al. Commun. Chem. 2026 SI Table 26
H      6.108665    -2.118352     2.298672
H      4.815232    -4.203614     2.094922
H      4.815232    -4.203614    -2.094922
H      6.108665    -2.118352    -2.298672
H      3.317858    -5.549326     2.298672
H      0.986650    -6.315327     2.094922
H      0.986650    -6.315327    -2.094922
H      3.317858    -5.549326    -2.298672
H     -1.025411    -6.383709     2.298672
H     -3.303596    -5.472027     2.094922
H     -3.303596    -5.472027    -2.094922
H     -1.025411    -6.383709    -2.298672
H     -4.888879    -4.231083     2.298672
H     -6.048053    -2.068306     2.094922
H     -6.048053    -2.068306    -2.094922
H     -4.888879    -4.231083    -2.298672
H     -6.464786    -0.098687     2.298672
H     -5.962558     2.303199     2.094922
H     -5.962558     2.303199    -2.094922
H     -6.464786    -0.098687    -2.298672
H     -5.015748     4.079886     2.298672
H     -3.087117     5.597012     2.094922
H     -3.087117     5.597012    -2.094922
H     -5.015748     4.079886    -2.298672
H     -1.219786     6.349435     2.298672
H      1.232821     6.271920     2.094922
H      1.232821     6.271920    -2.094922
H     -1.219786     6.349435    -2.298672
H      3.146928     5.648013     2.298672
H      4.975908     4.012127     2.094922
H      4.975908     4.012127    -2.094922
H      3.146928     5.648013    -2.298672
H      6.041159     2.303822     2.298672
H      6.390713    -0.124984     2.094922
H      6.390713    -0.124984    -2.094922
H      6.041159     2.303822    -2.298672
B     -6.051076    -1.748791     0.000000
B     -5.118307    -3.724308     1.232725
B     -5.118307    -3.724308    -1.232725
B     -3.511292    -5.229208     0.000000
B     -1.526912    -6.142970     1.232725
B     -1.526912    -6.142970    -1.232725
B      0.671465    -6.262821     0.000000
B      2.778942    -5.687268     1.232725
B      2.778942    -5.687268    -1.232725
B      4.540036    -4.365990     0.000000
B      5.784499    -2.570430     1.232725
B      5.784499    -2.570430    -1.232725
B      6.284273    -0.426263     0.000000
B      6.083424     1.749140     1.232725
B      6.083424     1.749140    -1.232725
B      5.088029     3.712916     0.000000
B      3.535847     5.250269     1.232725
B      3.535847     5.250269    -1.232725
B      1.511040     6.114781     0.000000
B     -0.666191     6.294738     1.232725
B     -0.666191     6.294738    -1.232725
B     -2.772982     5.655472     0.000000
B     -4.556512     4.393829     1.232725
B     -4.556512     4.393829    -1.232725
B     -5.759494     2.549905     0.000000
B     -6.314790     0.436999     1.232725
B     -6.314790     0.436999    -1.232725
N     -6.070625     1.832264     1.208189
N     -6.070625     1.832264    -1.208189
N     -6.339753    -0.319199     0.000000
N     -5.828125    -2.498526     1.208189
N     -5.828125    -2.498526    -1.208189
N     -4.651356    -4.319636     0.000000
N     -2.858581    -5.660229     1.208189
N     -2.858581    -5.660229    -1.208189
N     -0.786537    -6.298867     0.000000
N      1.448525    -6.173447     1.208189
N      1.448525    -6.173447    -1.208189
N      3.446311    -5.330788     0.000000
N      5.077850    -3.798041     1.208189
N      5.077850    -3.798041    -1.208189
N      6.066592    -1.868374     0.000000
N      6.331192     0.354511     1.208189
N      6.331192     0.354511    -1.208189
N      5.848247     2.468272     0.000000
N      4.622100     4.341183     1.208189
N      4.622100     4.341183    -1.208189
N      2.893442     5.649987     0.000000
N      0.750275     6.296568     1.208189
N      0.750275     6.296568    -1.208189
N     -1.415236     6.188010     0.000000
N     -3.472611     5.305718     1.208189
N     -3.472611     5.305718    -1.208189
N     -5.061710     3.830594     0.000000
