100
4i: [10]CPP-BN S0 PBE0/6-31G(d), Shizu et al. Commun. Chem. 2026 SI Table 27
H      6.575181    -2.643570     2.094669
H      7.147899    -0.258765     2.299073
H      7.147899    -0.258765    -2.299073
H      6.575181    -2.643570    -2.094669
H      6.873285     1.726102     2.094669
H      6.873285     1.726102    -2.094669
H      5.934870     3.992084     2.299073
H      5.934870     3.992084    -2.299073
H      5.630673    -4.410775    -2.299073
H      5.630673    -4.410775     2.299073
H      3.765582    -6.003488    -2.094669
H      3.765582    -6.003488     2.094669
H      4.546027     5.436461    -2.094669
H      4.546027     5.436461     2.094669
H      2.454922     6.718093    -2.299073
H      2.454922     6.718093     2.299073
H      0.482342     7.070277     2.094669
H      0.482342     7.070277    -2.094669
H     -1.962722     6.878018     2.299073
H     -1.962722     6.878018    -2.299073
H     -3.765582     6.003488    -2.094669
H     -3.765582     6.003488     2.094669
H     -5.630673     4.410775    -2.299073
H     -5.630673     4.410775     2.299073
H     -6.575181     2.643570     2.094669
H     -6.575181     2.643570    -2.094669
H     -7.147899     0.258765     2.299073
H     -7.147899     0.258765    -2.299073
H     -6.873285    -1.726102    -2.094669
H     -6.873285    -1.726102     2.094669
H     -5.934870    -3.992084    -2.299073
H     -5.934870    -3.992084     2.299073
H     -4.546027    -5.436461     2.094669
H     -4.546027    -5.436461    -2.094669
H     -2.454922    -6.718093     2.299073
H     -2.454922    -6.718093    -2.299073
H     -0.482342    -7.070277    -2.094669
H     -0.482342    -7.070277     2.094669
H      1.962722    -6.878018    -2.299073
H      1.962722    -6.878018     2.299073
B      0.777624     6.960260     0.000000
B     -1.407968     6.887819     1.232555
B     -1.407968     6.887819    -1.232555
B     -3.462027     6.088045     0.000000
B     -5.187629     4.744780     1.232555
B     -5.187629     4.744780    -1.232555
B     -6.379302     2.890403     0.000000
B     -6.985791     0.789396     1.232555
B     -6.985791     0.789396    -1.232555
B     -6.859900    -1.411274     0.000000
B     -6.115619    -3.467511     1.232555
B     -6.115619    -3.467511    -1.232555
B     -4.720250    -5.173893     0.000000
B     -2.909488    -6.399946     1.232555
B     -2.909488    -6.399946    -1.232555
B     -0.777624    -6.960260     0.000000
B      1.407968    -6.887819     1.232555
B      1.407968    -6.887819    -1.232555
B      3.462027    -6.088045     0.000000
B      5.187629    -4.744780     1.232555
B      5.187629    -4.744780    -1.232555
B      6.379302    -2.890403     0.000000
B      6.985791    -0.789396     1.232555
B      6.985791    -0.789396    -1.232555
B      6.859900     1.411274     0.000000
B      6.115619     3.467511     1.232555
B      6.115619     3.467511    -1.232555
B      4.720250     5.173893     0.000000
B      2.909488     6.399946     1.232555
B      2.909488     6.399946    -1.232555
N      4.139167     5.697074     1.207930
N      4.139167     5.697074    -1.207930
N      2.210929     6.690474     0.000000
N      0.000000     7.041971     1.207930
N      0.000000     7.041971    -1.207930
N     -2.143883     6.712259     0.000000
N     -4.139167     5.697074     1.207930
N     -4.139167     5.697074    -1.207930
N     -5.679804     4.170189     0.000000
N     -6.697313     2.176089     1.207930
N     -6.697313     2.176089    -1.207930
N     -7.046234     0.035249     0.000000
N     -6.697313    -2.176089     1.207930
N     -6.697313    -2.176089    -1.207930
N     -5.721241    -4.113156     0.000000
N     -4.139167    -5.697074     1.207930
N     -4.139167    -5.697074    -1.207930
N     -2.210929    -6.690474     0.000000
N      0.000000    -7.041971     1.207930
N      0.000000    -7.041971    -1.207930
N      2.143883    -6.712259     0.000000
N      4.139167    -5.697074     1.207930
N      4.139167    -5.697074    -1.207930
N      5.679804    -4.170189     0.000000
N      6.697313    -2.176089     1.207930
N      6.697313    -2.176089    -1.207930
N      7.046234    -0.035249     0.000000
N      6.697313     2.176089     1.207930
N      6.697313     2.176089    -1.207930
N      5.721241     4.113156     0.000000
