110
4j: [11]CPP-BN S0 PBE0/6-31G(d), Shizu et al. Commun. Chem. 2026 SI Table 28
H      4.192075    -6.559129     2.094461
H      1.970040    -7.595255     2.299681
H      1.970040    -7.595255    -2.299681
H      4.192075    -6.559129    -2.094461
H     -0.018441    -7.785790     2.094493
H     -2.447619    -7.455103     2.299713
H     -2.447619    -7.455103    -2.299713
H     -0.018441    -7.785790    -2.094493
H     -4.223015    -6.539279     2.094462
H     -6.087023    -4.946709     2.299660
H     -6.087023    -4.946709    -2.299660
H     -4.223015    -6.539279    -2.094462
H     -7.085508    -3.216574     2.094475
H     -7.793925    -0.869484     2.299663
H     -7.793925    -0.869484    -2.299663
H     -7.085508    -3.216574    -2.094475
H     -7.698630     1.125868     2.094489
H     -7.026152     3.483481     2.299712
H     -7.026152     3.483481    -2.299712
H     -7.698630     1.125868    -2.094489
H     -5.869253     5.111871     2.094463
H     -4.029409     6.732443     2.299652
H     -4.029409     6.732443    -2.299652
H     -5.869253     5.111871    -2.094463
H     -2.174949     7.475026     2.094506
H      0.248942     7.842698     2.299714
H      0.248942     7.842698    -2.299714
H     -2.174949     7.475026    -2.094506
H      2.210558     7.465335     2.094460
H      4.448036     6.462937     2.299650
H      4.448036     6.462937    -2.299650
H      2.210558     7.465335    -2.094460
H      5.893168     5.083795     2.094507
H      7.233096     3.030704     2.299669
H      7.233096     3.030704    -2.299669
H      5.893168     5.083795    -2.094507
H      7.704130     1.089454     2.094477
H      7.722683    -1.362199     2.299661
H      7.722683    -1.362199    -2.299661
H      7.704130     1.089454    -2.094477
H      7.069953    -3.250075     2.094507
H      5.761367    -5.323398     2.299690
H      5.761367    -5.323398    -2.299690
H      7.069953    -3.250075    -2.094507
B      5.634497     5.257816     0.000000
B      6.904600     3.476050    -1.232463
B      6.904600     3.476050     1.232463
B      7.580254     1.375643     0.000000
B      7.686648    -0.809937    -1.232453
B      7.686648    -0.809937     1.232453
B      7.120491    -2.942520     0.000000
B      6.029647    -4.839306    -1.232484
B      6.029647    -4.839306     1.232484
B      4.400965    -6.327760     0.000000
B      2.457462    -7.333192    -1.232466
B      2.457462    -7.333192     1.232466
B      0.282459    -7.703876     0.000000
B     -1.895981    -7.498339    -1.232471
B     -1.895981    -7.498339     1.232471
B     -3.925774    -6.633499     0.000000
B     -5.646359    -5.281521    -1.232424
B     -5.646359    -5.281521     1.232424
B     -6.886286    -3.456384     0.000000
B     -7.603841    -1.389224    -1.232447
B     -7.603841    -1.389224     1.232447
B     -7.660802     0.816476     0.000000
B     -7.147307     2.943529    -1.232483
B     -7.147307     2.943529     1.232483
B     -6.004108     4.830581     0.000000
B     -4.423018     6.343273    -1.232451
B     -4.423018     6.343273     1.232451
B     -2.440684     7.311962     0.000000
B     -0.292528     7.728596    -1.232467
B     -0.292528     7.728596     1.232467
B      1.898768     7.471603     0.000000
B      3.930811     6.659889    -1.232445
B      3.930811     6.659889     1.232445
N      2.654618     7.274506    -1.207862
N      4.569390     6.255155     0.000000
N      2.654618     7.274506     1.207862
N      6.163577     4.683248    -1.207899
N      7.222851     2.790329     0.000000
N      6.163577     4.683248     1.207899
N      7.715138     0.606255    -1.207875
N      7.584028    -1.558973     0.000000
N      7.715138     0.606255     1.207875
N      6.818459    -3.662794    -1.207917
N      5.538853    -5.414335     0.000000
N      6.818459    -3.662794     1.207917
N      3.757311    -6.770336    -1.207868
N      1.733592    -7.551274     0.000000
N      3.757311    -6.770336     1.207868
N     -0.498252    -7.728121    -1.207878
N     -0.498252    -7.728121     1.207878
N     -2.622736    -7.290169     0.000000
N     -4.595355    -6.231136    -1.207852
N     -4.595355    -6.231136     1.207852
N     -6.144989    -4.713200     0.000000
N     -7.232231    -2.756101    -1.207870
N     -7.232231    -2.756101     1.207870
N     -7.716360    -0.641613     0.000000
N     -7.573319     1.592643    -1.207892
N     -7.573319     1.592643     1.207892
N     -6.838333     3.633452     0.000000
N     -5.511494     5.436840    -1.207859
N     -5.511494     5.436840     1.207859
N     -3.790007     6.756616     0.000000
N     -1.698339     7.554987    -1.207878
N     -1.698339     7.554987     1.207878
N      0.463418     7.734081     0.000000
