120
4k: [12]CPP-BN S0 PBE0/6-31G(d), Shizu et al. Commun. Chem. 2026 SI Table 29
H      8.288152     1.995978     2.301855
H      8.458600    -0.448544     2.095496
H      8.480039    -0.446038    -2.093339
H      8.312196     1.999191    -2.298164
H      8.198169    -2.424748     2.298164
H      7.120910    -4.626300     2.093339
H      7.101090    -4.617751    -2.095496
H      8.175739    -2.415509    -2.301855
H      5.872643    -6.179761     2.301855
H      3.840849    -7.549634     2.095496
H      3.853739    -7.566948    -2.093339
H      5.887449    -6.198978    -2.298164
H      1.999191    -8.312196     2.298164
H     -0.446038    -8.480039     2.093339
H     -0.448544    -8.458600    -2.095496
H      1.995978    -8.288152    -2.301855
H     -2.415509    -8.175739     2.301855
H     -4.617751    -7.101090     2.095496
H     -4.626300    -7.120910    -2.093339
H     -2.424748    -8.198169    -2.298164
H     -6.198978    -5.887449     2.298164
H     -7.566948    -3.853739     2.093339
H     -7.549634    -3.840849    -2.095496
H     -6.179761    -5.872643    -2.301855
H     -8.288152    -1.995978     2.301855
H     -8.458600     0.448544     2.095496
H     -8.480039     0.446038    -2.093339
H     -8.312196    -1.999191    -2.298164
H     -8.198169     2.424748     2.298164
H     -7.120910     4.626300     2.093339
H     -7.101090     4.617751    -2.095496
H     -8.175739     2.415509    -2.301855
H     -5.872643     6.179761     2.301855
H     -3.840849     7.549634     2.095496
H     -3.853739     7.566948    -2.093339
H     -5.887449     6.198978    -2.298164
H     -1.999191     8.312196     2.298164
H      0.446038     8.480039     2.093339
H      0.448544     8.458600    -2.095496
H     -1.995978     8.288152    -2.301855
H      2.415509     8.175739     2.301855
H      4.617751     7.101090     2.095496
H      4.626300     7.120910    -2.093339
H      2.424748     8.198169    -2.298164
H      6.198978     5.887449     2.298164
H      7.566948     3.853739     2.093339
H      7.549634     3.840849    -2.095496
H      6.179761     5.872643    -2.301855
B     -8.377445     0.742988     0.000450
B     -8.302623    -1.444500     1.233777
B     -8.314764    -1.445914    -1.230873
B     -7.626574    -3.545276    -0.000450
B     -6.477840    -5.409581     1.230873
B     -6.468032    -5.402285    -1.233777
B     -4.832169    -6.883587     0.000450
B     -2.900338    -7.912532     1.233777
B     -2.905183    -7.923754    -1.230873
B     -0.742988    -8.377445    -0.000450
B      1.445914    -8.314764     1.230873
B      1.444500    -8.302623    -1.233777
B      3.545276    -7.626574     0.000450
B      5.402285    -6.468032     1.233777
B      5.409581    -6.477840    -1.230873
B      6.883587    -4.832169    -0.000450
B      7.923754    -2.905183     1.230873
B      7.912532    -2.900338    -1.233777
B      8.377445    -0.742988     0.000450
B      8.302623     1.444500     1.233777
B      8.314764     1.445914    -1.230873
B      7.626574     3.545276    -0.000450
B      6.477840     5.409581     1.230873
B      6.468032     5.402285    -1.233777
B      4.832169     6.883587     0.000450
B      2.900338     7.912532     1.233777
B      2.905183     7.923754    -1.230873
B      0.742988     8.377445    -0.000450
B     -1.445914     8.314764     1.230873
B     -1.444500     8.302623    -1.233777
B     -3.545276     7.626574     0.000450
B     -5.402285     6.468032     1.233777
B     -5.409581     6.477840    -1.230873
B     -6.883587     4.832169    -0.000450
B     -7.923754     2.905183     1.230873
B     -7.912532     2.900338    -1.233777
N      8.436745     0.034378     1.208974
N      8.157138     2.185699     0.001135
N      8.448559     0.035802    -1.206528
N      8.157138    -2.185699    -0.001135
N      7.334568    -4.193274     1.206528
N      7.323624    -4.188600    -1.208974
N      5.971440    -5.971440     0.001135
N      4.248145    -7.289246     1.208974
N      4.255285    -7.298765    -1.206528
N      7.298765     4.255285     1.206528
N      7.289246     4.248145    -1.208974
N      5.971440     5.971440    -0.001135
N      4.188600     7.323624     1.208974
N      4.193274     7.334568    -1.206528
N      2.185699     8.157138     0.001135
N     -0.035802     8.448559     1.206528
N     -0.034378     8.436745    -1.208974
N     -2.185699     8.157138    -0.001135
N     -4.248145     7.289246     1.208974
N     -4.255285     7.298765    -1.206528
N     -5.971440     5.971440     0.001135
N     -7.334568     4.193274     1.206528
N     -7.323624     4.188600    -1.208974
N     -8.157138     2.185699    -0.001135
N     -8.436745    -0.034378     1.208974
N     -8.448559    -0.035802    -1.206528
N     -8.157138    -2.185699     0.001135
N     -7.298765    -4.255285     1.206528
N     -5.971440    -5.971440    -0.001135
N     -7.289246    -4.248145    -1.208974
N     -4.188600    -7.323624     1.208974
N     -4.193274    -7.334568    -1.206528
N     -2.185699    -8.157138     0.001135
N      0.035802    -8.448559     1.206528
N      0.034378    -8.436745    -1.208974
N      2.185699    -8.157138    -0.001135
