60
5: [6]CMP-BN S0 PBE0/6-31G(d), Shizu et al. Commun. Chem. 2026 SI Table 30
H     -2.089838    -5.569200    -0.432099
H      2.089838    -5.569200    -0.432099
H      5.867987     0.974747    -0.432099
H      3.778150     4.594452    -0.432099
H     -3.778150     4.594452    -0.432099
H     -5.867987     0.974747    -0.432099
H      0.000000     6.731134     0.640929
H     -5.829333    -3.365567     0.640929
H      5.829333    -3.365567     0.640929
B     -3.798250     0.734211    -0.064990
B     -2.534971     2.922275    -0.064990
B     -5.009796     2.892407    -0.460167
H     -6.030815     3.481892    -0.686623
B      0.000000     2.981767    -0.057425
H      0.000000     1.806039    -0.300451
B     -1.251519     5.073265     0.327273
H     -2.264117     5.705184     0.453199
B      1.251519     5.073265     0.327273
H      2.264117     5.705184     0.453199
B      2.534971     2.922275    -0.064990
B      3.798250     0.734211    -0.064990
B      5.009796     2.892407    -0.460167
H      6.030815     3.481892    -0.686623
B      5.019336    -1.452785     0.327273
H      6.072893    -0.891809     0.453199
B      3.767817    -3.620480     0.327273
H      3.808776    -4.813375     0.453199
B      2.582286    -1.490883    -0.057425
H      1.564075    -0.903019    -0.300451
B      1.263279    -3.656486    -0.064990
B      0.000000    -5.784814    -0.460167
H      0.000000    -6.963785    -0.686623
B     -1.263279    -3.656486    -0.064990
B     -2.582286    -1.490883    -0.057425
H     -1.564075    -0.903019    -0.300451
B     -3.767817    -3.620480     0.327273
H     -3.808776    -4.813375     0.453199
B     -5.019336    -1.452785     0.327273
H     -6.072893    -0.891809     0.453199
N     -4.997126     1.473455    -0.326739
N     -3.774613     3.590910    -0.326739
N     -1.262186     3.659025     0.069378
N      0.000000     5.739907     0.448639
N      1.262186     3.659025     0.069378
N      3.774613     3.590910    -0.326739
N      4.997126     1.473455    -0.326739
N      3.799902    -0.736427     0.069378
N      4.970905    -2.869954     0.448639
N      2.537715    -2.922598     0.069378
N      1.222513    -5.064366    -0.326739
N     -1.222513    -5.064366    -0.326739
N     -2.537715    -2.922598     0.069378
N     -3.799902    -0.736427     0.069378
N     -4.970905    -2.869954     0.448639
N      2.596902     1.499322     0.066923
H      1.739977     1.004576     0.263187
N      0.000000    -2.998644     0.066923
H      0.000000    -2.009152     0.263187
N     -2.596902     1.499322     0.066923
H     -1.739977     1.004576     0.263187
