22
6a: [2]PP-BN S0 PBE0/6-31G(d), Shizu et al. Commun. Chem. 2026 SI Table 31
H     -0.005474     2.091886    -3.399624
H     -0.007067     2.300831    -0.929648
H      0.007067    -2.300831    -0.929648
H      0.005474    -2.091886    -3.399624
H      0.000000     0.000000    -4.861010
H     -0.598852    -2.008249     0.996729
H      0.598852     2.008249     0.996729
H     -0.651047    -2.197371     3.510188
H      0.651047     2.197371     3.510188
H      0.000000     0.000000     4.616350
B      0.000000     0.000000    -3.662169
B      0.001366     1.235429    -1.483622
B     -0.001366    -1.235429    -1.483622
B      0.000000     0.000000     0.730858
B      0.353127     1.197659     2.915890
B     -0.353127    -1.197659     2.915890
N      0.000000    -1.210269    -2.907868
N      0.000000     1.210269    -2.907868
N      0.000000     0.000000    -0.742640
N      0.343947     1.166180     1.491402
N     -0.343947    -1.166180     1.491402
N      0.000000     0.000000     3.607463
