32
6b: [3]PP-BN S0 PBE0/6-31G(d), Shizu et al. Commun. Chem. 2026 SI Table 32
H      2.283640    -0.192017     5.713755
H      2.087769    -0.178641     3.200107
H     -2.087769     0.178641     3.200107
H     -2.283640     0.192017     5.713755
H      0.000000     0.000000     6.820172
H     -2.272404    -0.355533     1.259943
H      2.272404     0.355533     1.259943
H     -2.069523    -0.322553    -1.189618
H      2.069523     0.322553    -1.189618
H     -2.296759     0.154902    -3.138972
H      2.296759    -0.154902    -3.138972
H     -2.087306     0.138922    -5.607371
H      2.087306    -0.138922    -5.607371
H      0.000000     0.000000    -7.068127
B      0.000000     0.000000    -5.869669
B      1.233826    -0.078699    -3.691973
B     -1.233826     0.078699    -3.691973
B      0.000000     0.000000    -1.480666
B      1.216747     0.183605     0.712379
B     -1.216747    -0.183605     0.712379
B      0.000000     0.000000     2.932592
B      1.244182    -0.103162     5.118929
B     -1.244182     0.103162     5.118929
N      1.207979    -0.077777    -5.115147
N     -1.207979     0.077777    -5.115147
N      0.000000     0.000000    -2.949954
N      1.193777     0.179729    -0.708301
N     -1.193777    -0.179729    -0.708301
N      0.000000     0.000000     1.462008
N      1.211690    -0.100474     3.695147
N     -1.211690     0.100474     3.695147
N      0.000000     0.000000     5.811352
