42
6c: [4]PP-BN S0 PBE0/6-31G(d), Shizu et al. Commun. Chem. 2026 SI Table 33
H      2.293659    -0.174147     3.463673
H     -2.293659     0.174147     3.463673
H      2.088373    -0.157029     1.014863
H     -2.088373     0.157029     1.014863
H     -2.072073    -0.310323     5.404972
H      2.072073     0.310323     5.404972
H     -2.266811    -0.336549     7.918851
H      2.266811     0.336549     7.918851
H      0.000000     0.000000     9.025366
H     -2.296360    -0.150873    -0.949087
H      2.296360     0.150873    -0.949087
H     -2.090129    -0.136140    -3.396314
H      2.090129     0.136140    -3.396314
H     -2.279775     0.321484    -5.346145
H      2.279775    -0.321484    -5.346145
H     -2.071640     0.290542    -7.813932
H      2.071640    -0.290542    -7.813932
H      0.000000     0.000000    -9.274552
B      0.000000     0.000000    -8.076287
B      1.225059    -0.168478    -5.898845
B     -1.225059     0.168478    -5.898845
B      0.000000     0.000000    -3.688131
B      1.229040     0.075842    -1.495363
B     -1.229040    -0.075842    -1.495363
B      0.000000     0.000000     0.721725
B      1.227237    -0.087245     2.916200
B     -1.227237     0.087245     2.916200
B      0.000000     0.000000     5.136893
B      1.235042     0.182011     7.323791
B     -1.235042    -0.182011     7.323791
N      1.199103    -0.165742    -7.321583
N     -1.199103     0.165742    -7.321583
N      0.000000     0.000000    -5.156270
N      1.205076     0.073666    -2.914766
N     -1.205076    -0.073666    -2.914766
N      0.000000     0.000000    -0.744374
N      1.204108    -0.085498     1.496414
N     -1.204108     0.085498     1.496414
N      0.000000     0.000000     3.667122
N      1.202795     0.177325     5.900308
N     -1.202795    -0.177325     5.900308
N      0.000000     0.000000     8.016575
