52
6d: [5]PP-BN S0 PBE0/6-31G(d), Shizu et al. Commun. Chem. 2026 SI Table 34
H      2.288497    -0.233110     5.669050
H     -2.288497     0.233110     5.669050
H      2.083467    -0.210210     3.220465
H     -2.083467     0.210210     3.220465
H     -2.080844    -0.243657     7.610754
H      2.080844     0.243657     7.610754
H     -2.276408    -0.263783    10.124803
H      2.276408     0.263783    10.124803
H      0.000000     0.000000    11.231334
H     -2.301672     0.010648     1.254428
H      2.301672    -0.010648     1.254428
H     -2.094277     0.011416    -1.191476
H      2.094277    -0.011416    -1.191476
H      2.292061     0.211279    -3.156780
H     -2.292061    -0.211279    -3.156780
H      2.085770     0.191452    -5.602819
H     -2.085770    -0.191452    -5.602819
H     -2.290184     0.237883    -7.553100
H      2.290184    -0.237883    -7.553100
H     -2.080882     0.214487   -10.020568
H      2.080882    -0.214487   -10.020568
H      0.000000     0.000000   -11.481119
B      0.000000     0.000000   -10.282950
B      1.230490    -0.123677    -8.105628
B     -1.230490     0.123677    -8.105628
B      0.000000     0.000000    -5.895137
B      1.226692     0.109052    -3.702371
B     -1.226692    -0.109052    -3.702371
B      0.000000     0.000000    -1.485633
B      1.231103    -0.007146     0.708671
B     -1.231103     0.007146     0.708671
B      0.000000     0.000000     2.926458
B      1.224451    -0.119181     5.121583
B     -1.224451     0.119181     5.121583
B      0.000000     0.000000     7.342468
B      1.240209     0.142391     9.529604
B     -1.240209    -0.142391     9.529604
N      1.204376    -0.121801    -9.528144
N     -1.204376     0.121801    -9.528144
N      0.000000     0.000000    -7.362756
N      1.202608     0.106195    -5.121237
N     -1.202608    -0.106195    -5.121237
N      0.000000     0.000000    -2.950536
N      1.207156    -0.006442    -0.709772
N     -1.207156     0.006442    -0.709772
N      0.000000     0.000000     1.461211
N      1.201347    -0.116884     3.702197
N     -1.201347     0.116884     3.702197
N      0.000000     0.000000     5.873101
N      1.207842     0.138719     8.106284
N     -1.207842    -0.138719     8.106284
N      0.000000     0.000000    10.222560
