62
6e: [6]PP-BN S0 PBE0/6-31G(d), Shizu et al. Commun. Chem. 2026 SI Table 35
H      2.286641    -0.251220     7.874720
H     -2.286641     0.251220     7.874720
H      2.081603    -0.226782     5.425939
H     -2.081603     0.226782     5.425939
H     -2.083122    -0.222826     9.816408
H      2.083122     0.222826     9.816408
H     -2.278919    -0.241057    12.330560
H      2.278919     0.241057    12.330560
H      0.000000     0.000000    13.437080
H     -2.301537     0.026495     3.460254
H      2.301537    -0.026495     3.460254
H     -2.093932     0.025416     1.014136
H      2.093932    -0.025416     1.014136
H      2.301912     0.030551    -0.952763
H     -2.301912    -0.030551    -0.952763
H      2.094115     0.027274    -3.397694
H     -2.094115    -0.027274    -3.397694
H     -2.291647    -0.217338    -5.363323
H      2.291647     0.217338    -5.363323
H     -2.085245    -0.197134    -7.808992
H      2.085245     0.197134    -7.808992
H     -2.292299     0.217700    -9.759621
H      2.292299    -0.217700    -9.759621
H     -2.082689     0.196085   -12.226856
H      2.082689    -0.196085   -12.226856
H      0.000000     0.000000   -13.687385
B      0.000000     0.000000   -12.489268
B      1.231562    -0.112906   -10.311998
B     -1.231562     0.112906   -10.311998
B      0.000000     0.000000    -8.101584
B      1.226444     0.112731    -5.908793
B     -1.226444    -0.112731    -5.908793
B      0.000000     0.000000    -3.692312
B      1.231205     0.016377    -1.498024
B     -1.231205    -0.016377    -1.498024
B      0.000000     0.000000     0.719290
B      1.231006    -0.016228     2.914169
B     -1.231006     0.016228     2.914169
B      0.000000     0.000000     5.131890
B      1.223504    -0.128917     7.327162
B     -1.223504     0.128917     7.327162
B      0.000000     0.000000     9.548035
B      1.241560     0.130021    11.735281
B     -1.241560    -0.130021    11.735281
N      1.205402    -0.111201   -11.734399
N     -1.205402     0.111201   -11.734399
N      0.000000     0.000000    -9.568946
N      1.202278     0.109798    -7.327403
N     -1.202278    -0.109798    -7.327403
N      0.000000     0.000000    -5.156621
N      1.207052     0.016499    -2.915916
N     -1.207052    -0.016499    -2.915916
N      0.000000     0.000000    -0.744697
N      1.207017    -0.015595     1.496135
N     -1.207017     0.015595     1.496135
N      0.000000     0.000000     3.667161
N      1.200391    -0.126515     5.907967
N     -1.200391     0.126515     5.907967
N      0.000000     0.000000     8.078875
N      1.209166     0.126680    10.312041
N     -1.209166    -0.126680    10.312041
N      0.000000     0.000000    12.428314
