72
6f: [7]PP-BN S0 PBE0/6-31G(d), Shizu et al. Commun. Chem. 2026 SI Table 36
H      2.300478     0.017869    10.080106
H     -2.300478    -0.017869    10.080106
H      2.093778     0.018773     7.632306
H     -2.093778    -0.018773     7.632306
H     -2.048509    -0.438871    12.023292
H      2.048509     0.438871    12.023292
H     -2.241277    -0.477614    14.537251
H      2.241277     0.477614    14.537251
H      0.000000     0.000000    15.643909
H     -2.301530     0.046961     5.664642
H      2.301530    -0.046961     5.664642
H     -2.093486     0.042488     3.219318
H      2.093486    -0.042488     3.219318
H      2.302129    -0.010952     1.252624
H     -2.302129     0.010952     1.252624
H      2.094013    -0.010215    -1.192725
H     -2.094013     0.010215    -1.192725
H     -2.299812     0.102980    -3.158849
H      2.299812    -0.102980    -3.158849
H     -2.092194     0.093480    -5.604039
H      2.092194    -0.093480    -5.604039
H      2.301574     0.047218    -7.569862
H     -2.301574    -0.047218    -7.569862
H      2.094103     0.042347   -10.015282
H     -2.094103    -0.042347   -10.015282
H     -2.269491     0.389153   -11.965780
H      2.269491    -0.389153   -11.965780
H     -2.062062     0.352008   -14.433091
H      2.062062    -0.352008   -14.433091
H      0.000000     0.000000   -15.893563
B      0.000000     0.000000   -14.695473
B      1.219661    -0.205046   -12.518246
B     -1.219661     0.205046   -12.518246
B      0.000000     0.000000   -10.307966
B      1.231458     0.022065    -8.115176
B     -1.231458    -0.022065    -8.115176
B      0.000000     0.000000    -5.898740
B      1.230334    -0.053557    -3.704490
B     -1.230334     0.053557    -3.704490
B      0.000000     0.000000    -1.487731
B      1.231357    -0.006594     0.707015
B     -1.231357     0.006594     0.707015
B      0.000000     0.000000     2.924196
B      1.230766    -0.024193     5.119312
B     -1.230766     0.024193     5.119312
B      0.000000     0.000000     7.337518
B      1.230002     0.013843     9.533159
B     -1.230002    -0.013843     9.533159
B      0.000000     0.000000    11.754493
B      1.221119     0.258973    13.941976
B     -1.221119    -0.258973    13.941976
N      1.193649    -0.201461   -13.940590
N     -1.193649     0.201461   -13.940590
N      0.000000     0.000000   -11.775160
N      1.207102     0.020794    -9.533647
N     -1.207102    -0.020794    -9.533647
N      0.000000     0.000000    -7.362798
N      1.206082    -0.052341    -5.122123
N     -1.206082     0.052341    -5.122123
N      0.000000     0.000000    -2.951028
N      1.207147    -0.006652    -0.710453
N     -1.207147     0.006652    -0.710453
N      0.000000     0.000000     1.460749
N      1.206805    -0.023765     3.701512
N     -1.206805     0.023765     3.701512
N      0.000000     0.000000     5.872887
N      1.206797     0.013163     8.114115
N     -1.206797    -0.013163     8.114115
N      0.000000     0.000000    10.285392
N      1.189244     0.252296    12.518795
N     -1.189244    -0.252296    12.518795
N      0.000000     0.000000    14.635151
