82
6g: [8]PP-BN S0 PBE0/6-31G(d), Shizu et al. Commun. Chem. 2026 SI Table 37
H     -2.297734     0.113511    12.285475
H     -2.091378     0.101284     9.837203
H      2.091378    -0.101284     9.837203
H      2.297734    -0.113511    12.285475
H     -2.301059    -0.060634     7.870917
H      2.301059     0.060634     7.870917
H     -2.093179    -0.054081     5.424747
H      2.093179     0.054081     5.424747
H      2.069220     0.327497    14.228093
H     -2.069220    -0.327497    14.228093
H      2.263834     0.355743    16.742163
H     -2.263834    -0.355743    16.742163
H      0.000000     0.000000    17.848784
H      2.302040    -0.021382     3.458646
H     -2.302040     0.021382     3.458646
H      2.093839    -0.019091     1.012926
H     -2.093839     0.019091     1.012926
H     -2.302058    -0.026091    -0.953022
H      2.302058     0.026091    -0.953022
H     -2.093901    -0.023519    -3.398549
H      2.093901     0.023519    -3.398549
H      2.301473    -0.056174    -5.364421
H     -2.301473     0.056174    -5.364421
H      2.093659    -0.051012    -7.809635
H     -2.093659     0.051012    -7.809635
H     -2.300312    -0.090232    -9.775326
H      2.300312     0.090232    -9.775326
H     -2.092928    -0.081563   -12.220835
H      2.092928     0.081563   -12.220835
H      2.275790    -0.350321   -14.171002
H     -2.275790     0.350321   -14.171002
H      2.067763    -0.316795   -16.638471
H     -2.067763     0.316795   -16.638471
H      0.000000     0.000000   -18.098871
B      0.000000     0.000000   -16.900795
B     -1.223035     0.184175   -14.723606
B      1.223035    -0.184175   -14.723606
B      0.000000     0.000000   -12.513451
B     -1.230884    -0.045123   -10.320702
B      1.230884     0.045123   -10.320702
B      0.000000     0.000000    -8.104379
B     -1.231240     0.028663    -5.910145
B      1.231240    -0.028663    -5.910145
B      0.000000     0.000000    -3.693576
B     -1.231478    -0.013154    -1.498893
B      1.231478     0.013154    -1.498893
B      0.000000     0.000000     0.717831
B     -1.231385     0.010430     2.912747
B      1.231385    -0.010430     2.912747
B      0.000000     0.000000     5.129814
B     -1.230771    -0.030338     7.324921
B      1.230771     0.030338     7.324921
B      0.000000     0.000000     9.542740
B     -1.228922     0.055537    11.738278
B      1.228922    -0.055537    11.738278
B      0.000000     0.000000    13.959427
B     -1.233359    -0.192561    16.146855
B      1.233359     0.192561    16.146855
N     -1.196938     0.181064   -16.145919
N      1.196938    -0.181064   -16.145919
N      0.000000     0.000000   -13.980549
N     -1.206525    -0.043422   -11.739108
N      1.206525     0.043422   -11.739108
N      0.000000     0.000000    -9.568288
N     -1.206916     0.027984    -7.327655
N      1.206916    -0.027984    -7.327655
N      0.000000     0.000000    -5.156584
N     -1.207158    -0.012778    -2.916122
N      1.207158     0.012778    -2.916122
N      0.000000     0.000000    -0.745012
N     -1.207145     0.010253     1.495463
N      1.207145    -0.010253     1.495463
N      0.000000     0.000000     3.666604
N     -1.206765    -0.029675     5.907199
N      1.206765     0.029675     5.907199
N      0.000000     0.000000     8.078317
N     -1.205729     0.054556    10.319260
N      1.205729    -0.054556    10.319260
N      0.000000     0.000000    12.490385
N     -1.201176    -0.187606    14.723693
N      1.201176     0.187606    14.723693
N      0.000000     0.000000    16.840028
