92
6h: [9]PP-BN S0 PBE0/6-31G(d), Shizu et al. Commun. Chem. 2026 SI Table 38
H      2.297661     0.114236    14.491387
H      2.091330     0.101879    12.042887
H     -2.091330    -0.101879    12.042887
H     -2.297661    -0.114236    14.491387
H      2.300939    -0.064712    10.076780
H     -2.300939     0.064712    10.076780
H      2.093052    -0.057690     7.630518
H     -2.093052     0.057690     7.630518
H     -2.068490     0.331944    16.433661
H      2.068490    -0.331944    16.433661
H     -2.263066     0.360607    18.947826
H      2.263066    -0.360607    18.947826
H      0.000000     0.000000    20.054405
H     -2.302119     0.017243     5.664354
H      2.302119    -0.017243     5.664354
H     -2.093796     0.015988     3.218597
H      2.093796    -0.015988     3.218597
H      2.302157    -0.019650     1.252798
H     -2.302157     0.019650     1.252798
H      2.093832    -0.017833    -1.192950
H     -2.093832     0.017833    -1.192950
H     -2.302216     0.010995    -3.158663
H      2.302216    -0.010995    -3.158663
H     -2.093996     0.010029    -5.604207
H      2.093996    -0.010029    -5.604207
H      2.302182    -0.008646    -7.570285
H     -2.302182     0.008646    -7.570285
H      2.094263    -0.007679   -10.015198
H     -2.094263     0.007679   -10.015198
H     -2.302102     0.024370   -11.981888
H      2.302102    -0.024370   -11.981888
H     -2.094385     0.022279   -14.426772
H      2.094385    -0.022279   -14.426772
B      0.000000     0.000000   -14.719655
B      1.231575    -0.011293   -12.526808
B     -1.231575     0.011293   -12.526808
B      0.000000     0.000000   -10.310241
B      1.231533    -0.004684    -8.115898
B     -1.231533     0.004684    -8.115898
B      0.000000     0.000000    -5.899307
B      1.231603    -0.005959    -3.704622
B     -1.231603     0.005959    -3.704622
B      0.000000     0.000000    -1.488087
B      1.231542    -0.010455     0.706776
B     -1.231542     0.010455     0.706776
B      0.000000     0.000000     2.923445
B      1.231401    -0.009709     5.118451
B     -1.231401     0.009709     5.118451
B      0.000000     0.000000     7.335531
B      1.230725    -0.032583     9.530696
B     -1.230725     0.032583     9.530696
B      0.000000     0.000000    11.748477
B      1.228946     0.055855    13.944015
B     -1.228946    -0.055855    13.944015
B      0.000000     0.000000    16.165065
B      1.232959    -0.195199    18.352482
B     -1.232959     0.195199    18.352482
N      1.207190    -0.010103   -13.945148
N     -1.207190     0.010103   -13.945148
N      0.000000     0.000000   -11.774116
N      1.207181    -0.004541    -9.533316
N     -1.207181     0.004541    -9.533316
N      0.000000     0.000000    -7.362151
N      1.207227    -0.005811    -5.121708
N     -1.207227     0.005811    -5.121708
N      0.000000     0.000000    -2.950614
N      1.207194    -0.010210    -0.710247
N     -1.207194     0.010210    -0.710247
N      0.000000     0.000000     1.460853
N      1.207153    -0.009486     3.701278
N     -1.207153     0.009486     3.701278
N      0.000000     0.000000     5.872441
N      1.206710    -0.031915     8.113035
N     -1.206710     0.031915     8.113035
N      0.000000     0.000000    10.284140
N      1.205741     0.054829    12.525031
N     -1.205741    -0.054829    12.525031
N      0.000000     0.000000    14.696093
N      1.200788    -0.190181    16.929336
N     -1.200788     0.190181    16.929336
N      0.000000     0.000000    19.045650
H      2.267124     0.403009   -16.377476
H     -2.267124    -0.403009   -16.377476
H      2.059860     0.364623   -18.844690
H     -2.059860    -0.364623   -18.844690
H      0.000000     0.000000   -20.305139
B      1.218403     0.212537   -16.929885
B     -1.218403    -0.212537   -16.929885
B      0.000000     0.000000   -19.107080
N      0.000000     0.000000   -16.186703
N      1.192391     0.208785   -18.352162
N     -1.192391    -0.208785   -18.352162
