102
6i: [10]PP-BN S0 PBE0/6-31G(d), Shizu et al. Commun. Chem. 2026 SI Table 39
H      2.297539     0.117403    16.696607
H      2.091172     0.104742    14.248175
H     -2.091172    -0.104742    14.248175
H     -2.297539    -0.117403    16.696607
H      2.300849    -0.067517    12.282217
H     -2.300849     0.067517    12.282217
H      2.092962    -0.060206     9.835825
H     -2.092962     0.060206     9.835825
H     -2.069599     0.324939    18.639064
H      2.069599    -0.324939    18.639064
H     -2.264268     0.352961    21.153199
H      2.264268    -0.352961    21.153199
H      0.000000     0.000000    22.259801
H     -2.302176     0.004622     7.869843
H      2.302176    -0.004622     7.869843
H     -2.093822     0.004585     5.423956
H      2.093822    -0.004585     5.423956
H      2.302253    -0.004557     3.458313
H     -2.302253     0.004557     3.458313
H      2.093847    -0.004085     1.012413
H     -2.093847     0.004085     1.012413
H     -2.302261    -0.007007    -0.953028
H      2.302261     0.007007    -0.953028
H     -2.093897    -0.006378    -3.398868
H      2.093897     0.006378    -3.398868
H      2.302155     0.022135    -5.364398
H     -2.302155    -0.022135    -5.364398
H      2.093934     0.020083    -7.809971
H     -2.093934    -0.020083    -7.809971
H     -2.301735    -0.048173    -9.775862
H      2.301735     0.048173    -9.775862
H     -2.093822    -0.043967   -12.220970
H      2.093822     0.043967   -12.220970
B      0.000000     0.000000   -12.515791
B      1.231370     0.024975   -10.321565
B     -1.231370    -0.024975   -10.321565
B      0.000000     0.000000    -8.105103
B      1.231610     0.011780    -5.910432
B     -1.231610    -0.011780    -5.910432
B      0.000000     0.000000    -3.694023
B      1.231672     0.003692    -1.499190
B     -1.231672    -0.003692    -1.499190
B      0.000000     0.000000     0.717247
B      1.231617    -0.002397     2.912182
B     -1.231617     0.002397     2.912182
B      0.000000     0.000000     5.128797
B      1.231462    -0.003114     7.323838
B     -1.231462     0.003114     7.323838
B      0.000000     0.000000     9.540863
B      1.230715    -0.033964    11.736036
B     -1.230715     0.033964    11.736036
B      0.000000     0.000000    13.953756
B      1.228861     0.057551    16.149309
B     -1.228861    -0.057551    16.149309
B      0.000000     0.000000    18.370403
B      1.233599    -0.191041    20.557854
B     -1.233599     0.191041    20.557854
N      1.207013     0.024288   -11.738948
N     -1.207013    -0.024288   -11.738948
N      0.000000     0.000000    -9.567855
N      1.207203     0.011635    -7.327448
N     -1.207203    -0.011635    -7.327448
N      0.000000     0.000000    -5.156376
N      1.207265     0.003693    -2.916081
N     -1.207265    -0.003693    -2.916081
N      0.000000     0.000000    -0.745027
N      1.207251    -0.002294     1.495265
N     -1.207251     0.002294     1.495265
N      0.000000     0.000000     3.666345
N      1.207199    -0.003001     5.906726
N     -1.207199     0.003001     5.906726
N      0.000000     0.000000     8.077863
N      1.206690    -0.033240    10.318412
N     -1.206690     0.033240    10.318412
N      0.000000     0.000000    12.489484
N      1.205661     0.056471    14.730350
N     -1.205661    -0.056471    14.730350
N      0.000000     0.000000    16.901444
N      1.201414    -0.186124    19.134722
N     -1.201414     0.186124    19.134722
N      0.000000     0.000000    21.251048
H      2.300266    -0.092533   -14.186657
H     -2.300266     0.092533   -14.186657
H      2.092880    -0.084080   -16.631994
H     -2.092880     0.084080   -16.631994
H      2.277966     0.336275   -18.582532
H     -2.277966    -0.336275   -18.582532
H      2.069706     0.303808   -21.049831
H     -2.069706    -0.303808   -21.049831
H      0.000000     0.000000   -22.510239
B     -1.230842     0.046505   -14.732043
B      1.230842    -0.046505   -14.732043
B      0.000000     0.000000   -16.924857
B      1.224118     0.176652   -19.134986
B     -1.224118    -0.176652   -19.134986
B      0.000000     0.000000   -21.312181
N      0.000000     0.000000   -13.979530
N     -1.206482     0.045042   -16.150360
N      1.206482    -0.045042   -16.150360
N      0.000000     0.000000   -18.391855
N      1.198041     0.173569   -20.557276
N     -1.198041    -0.173569   -20.557276
