112
6j: [11]PP-BN S0 PBE0/6-31G(d), Shizu et al. Commun. Chem. 2026 SI Table 40
H      2.297765     0.112160    18.902236
H      2.091402     0.099989    16.453666
H     -2.091402    -0.099989    16.453666
H     -2.297765    -0.112160    18.902236
H      2.300846    -0.068122    14.487679
H     -2.300846     0.068122    14.487679
H      2.092933    -0.060791    12.041311
H     -2.092933     0.060791    12.041311
H     -2.068149     0.333977    20.844438
H      2.068149    -0.333977    20.844438
H     -2.262707     0.362842    23.358642
H      2.262707    -0.362842    23.358642
H      0.000000     0.000000    24.465208
H     -2.302152     0.013728    10.075331
H      2.302152    -0.013728    10.075331
H     -2.093767     0.012837     7.629411
H      2.093767    -0.012837     7.629411
H      2.302194    -0.018133     5.663863
H     -2.302194     0.018133     5.663863
H      2.093751    -0.016441     3.217865
H     -2.093751     0.016441     3.217865
H     -2.302268     0.009387     1.252586
H      2.302268    -0.009387     1.252586
H     -2.093824     0.008560    -1.193427
H      2.093824    -0.008560    -1.193427
H      2.302287     0.001806    -3.158664
H     -2.302287    -0.001806    -3.158664
H      2.093897     0.001633    -5.604575
H     -2.093897    -0.001633    -5.604575
H     -2.302188    -0.019296    -7.569970
H      2.302188     0.019296    -7.569970
H     -2.093944    -0.017460   -10.015616
H      2.093944     0.017460   -10.015616
B      0.000000     0.000000   -10.310703
B      1.231654     0.010311    -8.116053
B     -1.231654    -0.010311    -8.116053
B      0.000000     0.000000    -5.899710
B      1.231725     0.000917    -3.704899
B     -1.231725    -0.000917    -3.704899
B      0.000000     0.000000    -1.488577
B      1.231700    -0.005068     0.706319
B     -1.231700     0.005068     0.706319
B      0.000000     0.000000     2.922705
B      1.231602    -0.009624     5.117671
B     -1.231602     0.009624     5.117671
B      0.000000     0.000000     7.334253
B      1.231449    -0.007914     9.529312
B     -1.231449     0.007914     9.529312
B      0.000000     0.000000    11.746328
B      1.230700    -0.034369    13.941521
B     -1.230700     0.034369    13.941521
B      0.000000     0.000000    16.159260
B      1.229010     0.054740    18.354816
B     -1.229010    -0.054740    18.354816
B      0.000000     0.000000    20.575841
B      1.232768    -0.196419    22.763273
B     -1.232768     0.196419    22.763273
N      1.207232     0.010228    -9.533029
N     -1.207232    -0.010228    -9.533029
N      0.000000     0.000000    -7.361979
N      1.207290     0.000969    -5.121720
N     -1.207290    -0.000969    -5.121720
N      0.000000     0.000000    -2.950693
N      1.207279    -0.004921    -0.710470
N     -1.207279     0.004921    -0.710470
N      0.000000     0.000000     1.460560
N      1.207228    -0.009401     3.700811
N     -1.207228     0.009401     3.700811
N      0.000000     0.000000     5.871876
N      1.207183    -0.007728     8.112235
N     -1.207183     0.007728     8.112235
N      0.000000     0.000000    10.283371
N      1.206675    -0.033657    12.523918
N     -1.206675     0.033657    12.523918
N      0.000000     0.000000    14.695005
N      1.205798     0.053735    16.935868
N     -1.205798    -0.053735    16.935868
N      0.000000     0.000000    19.106919
N      1.200602    -0.191374    21.340147
N     -1.200602     0.191374    21.340147
N      0.000000     0.000000    23.456456
H      2.301256     0.066708   -11.981337
H     -2.301256    -0.066708   -11.981337
H      2.093384     0.060719   -14.426551
H     -2.093384    -0.060719   -14.426551
H     -2.300898     0.074377   -16.392126
H      2.300898    -0.074377   -16.392126
H     -2.093455     0.067089   -18.837569
H      2.093455    -0.067089   -18.837569
H      2.275056     0.355513   -20.788079
H     -2.275056    -0.355513   -20.788079
H      2.067044     0.321427   -23.255330
H     -2.067044    -0.321427   -23.255330
H      0.000000     0.000000   -24.715758
B     -1.231158    -0.034661   -12.527109
B      1.231158     0.034661   -12.527109
B      0.000000     0.000000   -14.721325
B     -1.231188     0.036690   -16.937550
B      1.231188    -0.036690   -16.937550
B      0.000000     0.000000   -19.130332
B      1.222589     0.187019   -21.340521
B     -1.222589    -0.187019   -21.340521
B      0.000000     0.000000   -23.517709
N      0.000000     0.000000   -11.773404
N     -1.206792    -0.033805   -13.944470
N      1.206792     0.033805   -13.944470
N      0.000000     0.000000   -16.185038
N     -1.206799     0.035135   -18.355865
N      1.206799    -0.035135   -18.355865
N      0.000000     0.000000   -20.597343
N      1.196509     0.183792   -22.762787
N     -1.196509    -0.183792   -22.762787
