122
6k: [12]PP-BN S0 PBE0/6-31G(d), Shizu et al. Commun. Chem. 2026 SI Table 41
H     -2.297367    -0.120455    21.107669
H     -2.091021    -0.107537    18.659171
H      2.091021     0.107537    18.659171
H      2.297367     0.120455    21.107669
H     -2.301207     0.055148    16.693114
H      2.301207    -0.055148    16.693114
H     -2.093236     0.049000    14.246780
H      2.093236    -0.049000    14.246780
H      2.069759    -0.323837    23.049993
H     -2.069759     0.323837    23.049993
H      2.264454    -0.351767    25.564182
H     -2.264454     0.351767    25.564182
H      0.000000     0.000000    26.670761
H      2.302175    -0.011178    12.280787
H     -2.302175     0.011178    12.280787
H      2.093768    -0.010455     9.834852
H     -2.093768     0.010455     9.834852
H     -2.302229     0.013785     7.869368
H      2.302229    -0.013785     7.869368
H     -2.093759     0.012496     5.423307
H      2.093759    -0.012496     5.423307
H      2.302287    -0.005935     3.458134
H     -2.302287     0.005935     3.458134
H      2.093801    -0.005420     1.012022
H     -2.093801     0.005420     1.012022
H     -2.302294     0.006135    -0.953052
H      2.302294    -0.006135    -0.953052
H     -2.093829     0.005535    -3.399128
H      2.093829    -0.005535    -3.399128
H      2.302295     0.000339    -5.364249
H     -2.302295    -0.000339    -5.364249
H      2.093892     0.000369    -7.810196
H     -2.093892    -0.000369    -7.810196
B      0.000000     0.000000    -8.105338
B     -1.231752    -0.000150    -5.910531
B      1.231752     0.000150    -5.910531
B      0.000000     0.000000    -3.694276
B     -1.231755     0.003247    -1.499397
B      1.231755    -0.003247    -1.499397
B      0.000000     0.000000     0.716870
B     -1.231727     0.003256     2.911799
B      1.231727    -0.003256     2.911799
B      0.000000     0.000000     5.128150
B     -1.231632     0.007318     7.323132
B      1.231632    -0.007318     7.323132
B      0.000000     0.000000     9.539688
B     -1.231464     0.006431    11.734760
B      1.231464    -0.006431    11.734760
B      0.000000     0.000000    13.951770
B     -1.230869     0.027515    16.146979
B      1.230869    -0.027515    16.146979
B      0.000000     0.000000    18.364731
B     -1.228790    -0.059214    20.560304
B      1.228790     0.059214    20.560304
B      0.000000     0.000000    22.781364
B     -1.233707     0.190388    24.968813
B      1.233707    -0.190388    24.968813
N     -1.207300    -0.000212    -7.327308
N      1.207300     0.000212    -7.327308
N      0.000000     0.000000    -5.156296
N     -1.207304     0.003144    -2.916113
N      1.207304    -0.003144    -2.916113
N      0.000000     0.000000    -0.745109
N     -1.207296     0.003170     1.495070
N      1.207296    -0.003170     1.495070
N      0.000000     0.000000     3.666084
N     -1.207251     0.007140     5.906310
N      1.207251    -0.007140     5.906310
N      0.000000     0.000000     8.077363
N     -1.207194     0.006282    10.317707
N      1.207194    -0.006282    10.317707
N      0.000000     0.000000    12.488844
N     -1.206840     0.026951    14.729394
N      1.206840    -0.026951    14.729394
N      0.000000     0.000000    16.900495
N     -1.205585    -0.058132    19.141369
N      1.205585     0.058132    19.141369
N      0.000000     0.000000    21.312446
N     -1.201520     0.185493    23.545695
N      1.201520    -0.185493    23.545695
N      0.000000     0.000000    25.662009
H     -2.302270    -0.005314    -9.775516
H      2.302270     0.005314    -9.775516
H     -2.093999    -0.004803   -12.221221
H      2.093999     0.004803   -12.221221
H      2.301398     0.061428   -14.186812
H     -2.301398    -0.061428   -14.186812
H      2.093509     0.055829   -16.632097
H     -2.093509    -0.055829   -16.632097
H     -2.300622     0.082292   -18.597596
H      2.300622    -0.082292   -18.597596
H     -2.093203     0.074279   -21.043064
H      2.093203    -0.074279   -21.043064
H     -2.276316    -0.347398   -22.993576
H      2.276316     0.347398   -22.993576
H     -2.068165    -0.314080   -25.460842
H      2.068165     0.314080   -25.460842
H      0.000000     0.000000   -26.921248
B      1.231716     0.003002   -10.321633
B     -1.231716    -0.003002   -10.321633
B      0.000000     0.000000   -12.516269
B      1.231256     0.031735   -14.732633
B     -1.231256    -0.031735   -14.732633
B      0.000000     0.000000   -16.926839
B      1.231061    -0.040919   -19.143046
B     -1.231061     0.040919   -19.143046
B      0.000000     0.000000   -21.335839
B     -1.223261    -0.182661   -23.546028
B      1.223261     0.182661   -23.546028
B      0.000000     0.000000   -25.723202
N      0.000000     0.000000    -9.567549
N      1.207284     0.003068   -11.738581
N     -1.207284    -0.003068   -11.738581
N      0.000000     0.000000   -13.978927
N      1.206878     0.030942   -16.149975
N     -1.206878    -0.030942   -16.149975
N      0.000000     0.000000   -18.390522
N      1.206661    -0.039289   -20.561348
N     -1.206661     0.039289   -20.561348
N      0.000000     0.000000   -22.802837
N     -1.197156    -0.179543   -24.968279
N      1.197156     0.179543   -24.968279
