32
7a: [3]MP-BN S0 PBE0/6-31G(d), Shizu et al. Commun. Chem. 2026 SI Table 42
H      0.708887     1.600647    -1.979572
H     -0.707833     3.796889     1.807010
H     -0.643116     5.834512     0.396027
H      0.000179     6.099953    -2.059310
H      0.643391     3.836773    -3.047482
H      0.001601     2.089543     2.696568
H      0.000000     0.000000    -0.933008
H      0.000000     0.000000     4.116440
H     -0.001601    -2.089543     2.696568
H     -0.708887    -1.600647    -1.979572
H      0.707833    -3.796889     1.807010
H     -0.643391    -3.836773    -3.047482
H      0.643116    -5.834512     0.396027
H     -0.000179    -6.099953    -2.059310
B      0.000043     5.062788    -1.457580
B     -0.375040     3.768456     0.653482
B      0.375221     2.587390    -1.382102
B     -0.002019     1.262770     0.749802
B      0.002019    -1.262770     0.749802
B      0.000000     0.000000     2.915471
B     -0.375221    -2.587390    -1.382102
B      0.375040    -3.768456     0.653482
B     -0.000043    -5.062788    -1.457580
N     -0.368954     4.988871    -0.082258
N      0.000000     2.537496     0.007296
N      0.369021     3.832100    -2.076025
N     -0.003345     1.221416     2.182461
N      0.000000     0.000000     0.076575
N      0.003345    -1.221416     2.182461
N      0.000000    -2.537496     0.007296
N     -0.369021    -3.832100    -2.076025
N      0.368954    -4.988871    -0.082258
