32
7b: [3]MP-NB S0 PBE0/6-31G(d), Shizu et al. Commun. Chem. 2026 SI Table 43
H      0.805294     1.786503    -1.788589
H     -0.796007     3.735719     1.558572
H     -0.860269     6.002547     0.453778
H      0.009757     5.890463    -1.934743
H      0.878704     3.868378    -3.211389
H     -0.020013     2.265382     2.838758
H      0.000000     0.000000    -1.133594
H      0.000000     0.000000     3.885923
H      0.020013    -2.265382     2.838758
H     -0.805294    -1.786503    -1.788589
H      0.796007    -3.735719     1.558572
H     -0.878704    -3.868378    -3.211389
H      0.860269    -6.002547     0.453778
H     -0.009757    -5.890463    -1.934743
N      0.007040     5.018029    -1.427943
N     -0.455981     3.755749     0.608303
N      0.461814     2.622148    -1.338382
N     -0.004824     1.260125     0.759927
N      0.004824    -1.260125     0.759927
N      0.000000     0.000000     2.876187
N     -0.461814    -2.622148    -1.338382
N      0.455981    -3.755749     0.608303
N     -0.007040    -5.018029    -1.427943
B     -0.465228     5.003389    -0.081201
B      0.000000     2.533222     0.015232
B      0.478396     3.839360    -2.080292
B     -0.013743     1.250719     2.197874
B      0.000000     0.000000     0.067757
B      0.013743    -1.250719     2.197874
B      0.000000    -2.533222     0.015232
B     -0.478396    -3.839360    -2.080292
B      0.465228    -5.003389    -0.081201
