42
7c: [4]MP-BN S0 PBE0/6-31G(d), Shizu et al. Commun. Chem. 2026 SI Table 44
H      3.615210    -1.780694     1.050092
H      5.563232     1.982933    -0.742979
H      7.712265     0.862584    -0.223382
H      8.150524    -1.411401     0.848892
H      5.940614    -2.560341     1.403909
H      3.697848     2.748496    -0.412611
H      2.009455    -1.057252     0.042011
H      1.489346     3.880001    -0.882263
H     -0.427934     2.233515    -0.835929
H      0.618806    -2.371986    -0.812900
H     -2.027819     1.253699     0.055294
H     -1.512701    -3.669371    -0.775030
H     -3.859563    -2.913444    -0.390144
B      7.064471    -0.950073     0.636570
B      5.613739     0.900631    -0.225258
B      4.567602    -1.124262     0.727317
B      3.084948     0.742604    -0.143206
B      0.590949     0.435441    -0.387923
B      1.612987     2.706416    -0.661123
B     -0.449346    -1.864547    -0.608842
B     -1.904608     0.075275    -0.142973
B     -2.922923    -2.162823    -0.381481
N      6.893625     0.331597     0.035394
N      4.419368     0.173243     0.119814
N      5.868615    -1.651354     0.970753
N      2.894353     2.138171    -0.408769
N      1.906082    -0.070180    -0.143631
N      0.481300     1.840138    -0.644292
N     -0.589232    -0.452333    -0.380132
N     -1.616772    -2.679107    -0.607638
N     -3.079312    -0.754967    -0.134178
H     -5.536907    -1.722494    -0.778693
H     -3.763287     1.564117     1.123033
H     -7.896819    -0.903743    -0.426327
H     -5.956755     2.697272     1.642710
H     -7.926970     1.326367     0.798628
B     -4.411883    -0.179056     0.123231
B     -6.917429    -0.315481    -0.058036
B     -5.859854     1.649179     1.065793
N     -5.613599    -0.842093    -0.290812
N     -7.013705     0.935124     0.622972
N     -4.583841     1.071078     0.802711
