52
7d: [5]MP-BN S0 PBE0/6-31G(d), Shizu et al. Commun. Chem. 2026 SI Table 45
H      1.122476    -1.461915     2.434701
H     -0.290337    -3.796525    -1.234227
H      0.985021    -5.988390     2.571663
H      1.408582    -3.706160     3.487788
H      0.332965    -2.063113    -2.184984
H      0.000000     0.000000     1.444737
H      0.000000     0.000000    -3.605952
H     -0.332965     2.063113    -2.184984
H     -1.122476     1.461915     2.434701
H      0.290337     3.796525    -1.234227
H     -1.408582     3.706160     3.487788
H     -0.985021     5.988390     2.571663
B      0.801284    -4.986524     1.936856
B      0.115701    -3.775072    -0.103884
B      0.871576    -2.486883     1.863018
B      0.192773    -1.247074    -0.239723
B     -0.192773     1.247074    -0.239723
B      0.000000     0.000000    -2.405674
B     -0.871576     2.486883     1.863018
B     -0.115701     3.775072    -0.103884
B     -0.801284     4.986524     1.936856
N      0.305828    -5.021689     0.587449
N      0.393474    -2.504075     0.507298
N      1.066338    -3.724519     2.538026
N      0.186531    -1.206927    -1.671343
N      0.000000     0.000000     0.434923
N     -0.186531     1.206927    -1.671343
N     -0.393474     2.504075     0.507298
N     -1.066338     3.724519     2.538026
N     -0.305828     5.021689     0.587449
H     -1.216563     7.518854     1.159916
H      1.330745     5.553427    -1.526124
H     -0.814099     9.805799     0.174881
H      1.961790     7.654687    -2.771187
H      0.799869     9.694172    -1.789190
B      0.000000     6.306157    -0.069348
B     -0.304169     8.798067    -0.231468
B      1.205318     7.625063    -1.839846
N     -0.577551     7.539160     0.378716
N      0.591872     8.813845    -1.342242
N      0.891470     6.396928    -1.187718
H      1.216563    -7.518854     1.159916
H     -1.330745    -5.553427    -1.526124
H      0.814099    -9.805799     0.174881
H     -1.961790    -7.654687    -2.771187
H     -0.799869    -9.694172    -1.789190
B      0.000000    -6.306157    -0.069348
B      0.304169    -8.798067    -0.231468
B     -1.205318    -7.625063    -1.839846
N      0.577551    -7.539160     0.378716
N     -0.891470    -6.396928    -1.187718
N     -0.591872    -8.813845    -1.342242
