52
7e: [5]MP-NB S0 PBE0/6-31G(d), Shizu et al. Commun. Chem. 2026 SI Table 46
H     -1.092574    -1.636228    -2.290151
H      0.225463    -3.794719     1.047795
H     -0.927759    -5.809953    -2.437943
H     -1.491714    -3.696115    -3.700257
H     -0.332049    -2.240922     2.333813
H      0.000000     0.000000    -1.638420
H      0.000000     0.000000     3.380324
H      0.332049     2.240922     2.333813
H      1.092574     1.636228    -2.290151
H     -0.225463     3.794719     1.047795
H      1.491714     3.696115    -3.700257
H      0.927759     5.809953    -2.437943
N     -0.789789    -4.953357    -1.922902
N     -0.118291    -3.775625     0.098616
N     -0.875037    -2.513507    -1.841515
N     -0.190279    -1.245850     0.254820
N      0.190279     1.245850     0.254820
N      0.000000     0.000000     2.370679
N      0.875037     2.513507    -1.841515
N      0.118291     3.775625     0.098616
N      0.789789     4.953357    -1.922902
B     -0.301369    -5.024267    -0.577264
B     -0.391815    -2.502474    -0.493193
B     -1.082204    -3.719524    -2.571811
B     -0.180251    -1.238005     1.692150
B      0.000000     0.000000    -0.437045
B      0.180251     1.238005     1.692150
B      0.391815     2.502474    -0.493193
B      1.082204     3.719524    -2.571811
B      0.301369     5.024267    -0.577264
H      1.218164     7.568585    -1.427817
H     -1.294930     5.380676     1.745254
H      0.603542     9.627941    -0.192000
H     -1.680015     7.637873     2.694050
H     -0.834164     9.909925     1.897604
N      0.000000     6.311421     0.076274
N      0.219294     8.779401     0.197138
N     -1.096358     7.627402     1.870450
B      0.520036     7.546630    -0.450974
B     -0.591272     8.862385     1.367311
B     -0.820299     6.370605     1.258533
H     -1.218164    -7.568585    -1.427817
H      1.294930    -5.380676     1.745254
H     -0.603542    -9.627941    -0.192000
H      1.680015    -7.637873     2.694050
H      0.834164    -9.909925     1.897604
N      0.000000    -6.311421     0.076274
N     -0.219294    -8.779401     0.197138
N      1.096358    -7.627402     1.870450
B     -0.520036    -7.546630    -0.450974
B      0.820299    -6.370605     1.258533
B      0.591272    -8.862385     1.367311
