62
7f: [6]MP-BN S0 PBE0/6-31G(d), Shizu et al. Commun. Chem. 2026 SI Table 47
H      0.294821     2.435603     0.437463
H     -1.845412    -1.512352    -0.427335
H     -4.217545     2.368862     0.037169
H     -1.991974     3.433340     0.412682
H     -0.125557    -2.274279     0.427945
H      1.850629     1.324599    -0.397635
H      1.993965    -3.650725     0.458968
H      4.032775    -2.227509     0.006900
H      3.351347     2.166349    -1.590062
H      5.696074    -1.118009     0.559962
H      5.577886     3.243437    -1.921185
H      7.854105     2.501921    -1.216281
B     -3.188854     1.750888     0.022528
B     -1.880470    -0.328541    -0.226374
B     -0.696341     1.788735     0.237347
B      0.641828    -0.350114     0.006844
B      3.154411    -0.319153    -0.231204
B      1.959753    -2.468247     0.255430
B      4.374236     1.685644    -1.186503
B      5.667748    -0.073842    -0.033333
B      6.861196     1.868322    -0.985403
N     -3.154991     0.335851    -0.227420
N     -0.645407     0.370774     0.006046
N     -1.962200     2.438381     0.243548
N      0.723490    -1.760039     0.246161
N      1.879475     0.329802    -0.226636
N      3.154949    -1.729882     0.015538
N      4.400108     0.431616    -0.484090
N      5.601895     2.366330    -1.421581
N      6.903657     0.623975    -0.266091
H      9.435895     1.131370    -1.115918
H      7.390683    -1.159843     1.735902
H     11.720239     0.319309    -0.419088
H      9.482740    -2.196286     2.691788
H     11.562810    -1.345759     1.498637
B      8.184279     0.079170     0.221189
B     10.694185    -0.034052     0.093844
B      9.474367    -1.408398     1.786395
N      9.438196     0.471018    -0.352395
N     10.684985    -0.975456     1.166542
N      8.250434    -0.867782     1.294850
H     -5.694784     0.945848     0.463283
H     -3.526551    -2.036927    -1.522268
H     -5.564350    -3.443707    -2.030224
H     -7.674168    -2.379314    -1.138648
B     -4.399510    -0.418029    -0.478995
B     -6.906459    -0.617641    -0.256254
B     -5.595299    -2.400735    -1.436265
N     -5.669264     0.068613    -0.036000
N     -4.400831    -1.666462    -1.180841
N     -6.826388    -1.859880    -0.966732
H     -9.478243    -1.416400    -1.142685
H     -7.228846     1.401675     1.715936
H    -11.529812    -0.383795    -0.210050
H     -9.484104     2.179675     2.387452
H    -11.781185     1.433865     1.563544
B     -8.232266     0.955902     1.229511
B    -10.735958     0.994400     1.173861
B     -9.440494    -0.564352    -0.297321
N     -8.190445    -0.075757     0.225377
N     -9.486478     1.461754     1.677778
N    -10.670214    -0.025819     0.179839
