24
8a: B12N12-fullerene S0 PBE0/6-31G(d), Shizu et al. Commun. Chem. 2026 SI Table 48
N      0.000000    -2.122559     1.122921
N      2.122559    -1.122921     0.000000
N      0.000000    -2.122559    -1.122921
N      2.122559     1.122921     0.000000
N      1.122921     0.000000    -2.122559
N      0.000000     2.122559    -1.122921
N      0.000000     2.122559     1.122921
N      1.122921     0.000000     2.122559
N     -2.122559    -1.122921     0.000000
N     -2.122559     1.122921     0.000000
N     -1.122921     0.000000     2.122559
N     -1.122921     0.000000    -2.122559
B      0.000000    -0.951953     1.955961
B      1.955961     0.000000     0.951953
B      0.000000     0.951953     1.955961
B     -1.955961     0.000000     0.951953
B      0.951953     1.955961     0.000000
B     -0.951953     1.955961     0.000000
B      0.000000     0.951953    -1.955961
B     -1.955961     0.000000    -0.951953
B      1.955961     0.000000    -0.951953
B      0.000000    -0.951953    -1.955961
B     -0.951953    -1.955961     0.000000
B      0.951953    -1.955961     0.000000
