48
8b: B24N24-fullerene S0 PBE0/6-31G(d), Shizu et al. Commun. Chem. 2026 SI Table 49
B     -1.716159     0.685108     2.682756
B      0.685108     1.716159     2.682756
B      1.716159    -0.685108     2.682756
B     -0.685108    -1.716159     2.682756
B     -0.685108     2.682756     1.716159
B      1.716159     2.682756     0.685108
B      2.682756     0.685108     1.716159
B      2.682756    -1.716159     0.685108
B      0.685108    -2.682756     1.716159
B     -1.716159    -2.682756     0.685108
B     -2.682756    -0.685108     1.716159
B     -2.682756     1.716159     0.685108
B      2.682756     1.716159    -0.685108
B      2.682756    -0.685108    -1.716159
B      1.716159    -2.682756    -0.685108
B     -0.685108    -2.682756    -1.716159
B      0.685108    -1.716159    -2.682756
B      1.716159     0.685108    -2.682756
B      0.685108     2.682756    -1.716159
B     -0.685108     1.716159    -2.682756
B     -1.716159    -0.685108    -2.682756
B     -2.682756     0.685108    -1.716159
B     -2.682756    -1.716159    -0.685108
B     -1.716159     2.682756    -0.685108
N     -2.853303     1.725917    -0.769227
N     -1.725917     2.853303     0.769227
N     -0.769227     2.853303    -1.725917
N      0.769227    -2.853303    -1.725917
N      1.725917     2.853303    -0.769227
N      0.769227     2.853303     1.725917
N      1.725917    -2.853303     0.769227
N      1.725917     0.769227     2.853303
N      2.853303    -0.769227     1.725917
N      2.853303     1.725917     0.769227
N      2.853303     0.769227    -1.725917
N      1.725917    -0.769227    -2.853303
N      0.769227     1.725917    -2.853303
N     -1.725917     0.769227    -2.853303
N     -2.853303    -0.769227    -1.725917
N     -2.853303    -1.725917     0.769227
N     -2.853303     0.769227     1.725917
N     -1.725917    -2.853303    -0.769227
N     -1.725917    -0.769227     2.853303
N     -0.769227     1.725917     2.853303
N     -0.769227    -2.853303     1.725917
N      0.769227    -1.725917     2.853303
N      2.853303    -1.725917    -0.769227
N     -0.769227    -1.725917    -2.853303
