72
8c: B36N36-fullerene S0 PBE0/6-31G(d), Shizu et al. Commun. Chem. 2026 SI Table 50
B     -0.645776    -0.645776     4.091662
B      0.645776     0.645776     4.091662
B     -1.432900     1.432900     3.202172
B     -1.432900     3.202172     1.432900
B      0.645776     4.091662     0.645776
B      0.712192     2.483859     2.483859
B      2.483859     0.712192     2.483859
B      1.432900    -1.432900     3.202172
B      3.202172    -1.432900     1.432900
B      4.091662     0.645776     0.645776
B      2.483859     2.483859     0.712192
B      1.432900    -3.202172     1.432900
B     -0.645776    -4.091662     0.645776
B     -0.712192    -2.483859     2.483859
B     -2.483859    -2.483859     0.712192
B     -2.483859    -0.712192     2.483859
B     -4.091662    -0.645776     0.645776
B     -3.202172     1.432900     1.432900
B     -4.091662     0.645776    -0.645776
B     -2.483859     2.483859    -0.712192
B     -0.645776     4.091662    -0.645776
B      1.432900     3.202172    -1.432900
B     -0.712192     2.483859    -2.483859
B     -2.483859     0.712192    -2.483859
B     -3.202172    -1.432900    -1.432900
B     -1.432900    -1.432900    -3.202172
B     -1.432900    -3.202172    -1.432900
B      0.645776    -4.091662    -0.645776
B      0.712192    -2.483859    -2.483859
B      0.645776    -0.645776    -4.091662
B     -0.645776     0.645776    -4.091662
B      1.432900     1.432900    -3.202172
B      3.202172     1.432900    -1.432900
B      2.483859    -0.712192    -2.483859
B      2.483859    -2.483859    -0.712192
B      4.091662    -0.645776    -0.645776
N     -1.431092     3.199064    -1.431092
N      0.759343     2.558516    -2.558516
N     -1.431092     1.431092    -3.199064
N     -3.199064     1.431092    -1.431092
N     -2.558516     2.558516     0.759343
N     -0.789970     4.310153     0.789970
N     -0.759343     2.558516     2.558516
N     -4.310153     0.789970     0.789970
N     -1.431092    -3.199064     1.431092
N     -3.199064    -1.431092     1.431092
N     -4.310153    -0.789970    -0.789970
N     -2.558516    -0.759343    -2.558516
N      0.789970    -4.310153     0.789970
N     -0.789970    -0.789970    -4.310153
N      0.789970     0.789970    -4.310153
N      1.431092    -1.431092    -3.199064
N      1.431092    -3.199064    -1.431092
N     -0.759343    -2.558516    -2.558516
N     -0.789970    -4.310153    -0.789970
N     -2.558516    -2.558516    -0.759343
N      2.558516    -2.558516     0.759343
N      0.759343    -2.558516     2.558516
N     -2.558516     0.759343     2.558516
N     -0.789970     0.789970     4.310153
N     -1.431092    -1.431092     3.199064
N      0.789970    -0.789970     4.310153
N      1.431092     1.431092     3.199064
N      2.558516    -0.759343     2.558516
N      3.199064     1.431092     1.431092
N      4.310153    -0.789970     0.789970
N      4.310153     0.789970    -0.789970
N      3.199064    -1.431092    -1.431092
N      2.558516     2.558516    -0.759343
N      2.558516     0.759343    -2.558516
N      0.789970     4.310153    -0.789970
N      1.431092     3.199064     1.431092
