28
 energy: -51.229495545578 gnorm: 0.000236509213 xtb: 6.7.1 (edcfbbe)
N            0.42435586082655       -1.05166854518088        0.28553829431313
C            1.69930646807156       -0.62463054743218        0.26767092576140
C            2.27541397300962       -0.02729231201658        1.40542197172940
C            3.58276303094720        0.39818765932128        1.38771958260474
C            2.48995979608215       -0.76511499500854       -0.88997775673134
C            3.79703773856303       -0.34039909969082       -0.90081273096751
C            4.33884535791798        0.23866795679119        0.23717201232552
S            6.03586154887682        0.70307735829749        0.21613878461903
N            6.90851802700393       -0.73960420819056        0.30156447070312
C            6.59468975257186       -1.63681054186903        1.29156886434823
C            6.22194250101140       -1.32050622339111        2.62511126221324
C            6.04171760481292       -2.53958057100724        3.21137277540273
O            6.28718704853665       -3.50346271728868        2.30454496704741
N            6.62568275799336       -2.93857649594798        1.10768402641797
C            5.64642730996550       -2.94568712663534        4.57764817986575
O            6.41754949546246        1.26798703142489       -1.06004994366295
O            6.36937720667156        1.48275923291592        1.38710234393749
H           -0.13579352109987       -0.93431692212125        1.10979062441353
H            0.01711709895399       -1.45958736283244       -0.53589569063080
H            1.68178502996468        0.09715141061669        2.29650361024111
H            4.03781662868099        0.86908227045315        2.24350123000322
H            2.06177885692033       -1.21179864909748       -1.77270145953564
H            4.41385631215704       -0.43003711123256       -1.78035306766981
H            7.10372238167679       -1.15586188170863       -0.59708654740060
H            6.14032483310532       -0.34099676073232        3.04111259409315
H            5.47918400026266       -2.06360031176216        5.18508098904669
H            6.42984501175079       -3.55566260391057        5.02180091420926
H            4.73994571876638       -3.54503495211956        4.53555868314533
