28
SMX conformer D; Blackmon and Closser (2026) supplement
N  -0.5465618000 -0.0822832000  0.0327732000
C  -0.3321262000 -0.0223990000  1.3777814000
C   0.9758502000  0.0225374000  1.8969341000
C   1.1942362000  0.0353170000  3.2591468000
C  -1.4152688000 -0.0450083000  2.2801749000
C  -1.1964327000 -0.0315284000  3.6403100000
C   0.1093442000  0.0130187000  4.1377912000
S   0.3724508000 -0.0458284000  5.8606618000
N   0.2318400000 -1.6526708000  6.3220616000
C   1.0468464000 -2.6382062000  5.7737614000
C   2.4296595000 -2.5637610000  5.4536390000
C   2.7282562000 -3.8100754000  5.0064977000
O   1.6249489000 -4.5846637000  5.0535930000
N   0.5441524000 -3.8265833000  5.5331260000
C   3.9745070000 -4.4356835000  4.5111896000
O   1.7316762000  0.3388306000  6.1419657000
O  -0.7174481000  0.5970245000  6.5501523000
H   0.2094093000  0.1559610000 -0.5883298000
H  -1.4722325000  0.1022058000 -0.3181538000
H   1.8159184000  0.0476125000  1.2143633000
H   2.2023149000  0.0723276000  3.6456354000
H  -2.4266181000 -0.0715554000  1.8945282000
H  -2.0363966000 -0.0486133000  4.3215742000
H  -0.7405420000 -1.9282019000  6.4209694000
H   3.0865271000 -1.7202042000  5.5507865000
H   4.7856288000 -3.7110023000  4.5368273000
H   3.8457044000 -4.7868638000  3.4854147000
H   4.2450235000 -5.2940087000  5.1292545000
