      -----------------------------------------------------------      
     |                   =====================                   |     
     |                           x T B                           |     
     |                   =====================                   |     
     |                         S. Grimme                         |     
     |          Mulliken Center for Theoretical Chemistry        |     
     |                    University of Bonn                     |     
      -----------------------------------------------------------      

   * xtb version 6.7.1 (edcfbbe) compiled by 'runner@sat12-gn217-0cbadaec-b866-44ae-a866-732403219ae3-6E01A8DFFD18.local' on 2026-06-10

   xtb is free software: you can redistribute it and/or modify it under
   the terms of the GNU Lesser General Public License as published by
   the Free Software Foundation, either version 3 of the License, or
   (at your option) any later version.
   
   xtb is distributed in the hope that it will be useful,
   but WITHOUT ANY WARRANTY; without even the implied warranty of
   MERCHANTABILITY or FITNESS FOR A PARTICULAR PURPOSE.  See the
   GNU Lesser General Public License for more details.
   
   Cite this work as:
   * C. Bannwarth, E. Caldeweyher, S. Ehlert, A. Hansen, P. Pracht,
     J. Seibert, S. Spicher, S. Grimme, WIREs Comput. Mol. Sci., 2020, 11,
     e01493. DOI: 10.1002/wcms.1493
   
   for GFN2-xTB:
   * C. Bannwarth, S. Ehlert and S. Grimme., J. Chem. Theory Comput., 2019,
     15, 1652-1671. DOI: 10.1021/acs.jctc.8b01176
   for GFN1-xTB:
   * S. Grimme, C. Bannwarth, P. Shushkov, J. Chem. Theory Comput., 2017,
     13, 1989-2009. DOI: 10.1021/acs.jctc.7b00118
   for GFN0-xTB:
   * P. Pracht, E. Caldeweyher, S. Ehlert, S. Grimme, ChemRxiv, 2019, preprint.
     DOI: 10.26434/chemrxiv.8326202.v1
   for GFN-FF:
   * S. Spicher and S. Grimme, Angew. Chem. Int. Ed., 2020, 59, 15665-15673.
     DOI: 10.1002/anie.202004239
   
   for ALPB and GBSA implicit solvation:
   * S. Ehlert, M. Stahn, S. Spicher, S. Grimme, J. Chem. Theory Comput.,
     2021, 17, 4250-4261. DOI: 10.1021/acs.jctc.1c00471
   
   for ddCOSMO and CPCM-X implicit solvation:
   * M. Stahn, S. Ehlert, S. Grimme, J. Phys. Chem. A,
     2023, XX, XXXX-XXXX. DOI: 10.1021/acs.jpca.3c04382
   
   for DFT-D4:
   * E. Caldeweyher, C. Bannwarth and S. Grimme, J. Chem. Phys., 2017,
     147, 034112. DOI: 10.1063/1.4993215
   * E. Caldeweyher, S. Ehlert, A. Hansen, H. Neugebauer, S. Spicher,
     C. Bannwarth and S. Grimme, J. Chem. Phys., 2019, 150, 154122.
     DOI: 10.1063/1.5090222
   * E. Caldeweyher, J.-M. Mewes, S. Ehlert and S. Grimme, Phys. Chem. Chem. Phys.
     2020, 22, 8499-8512. DOI: 10.1039/D0CP00502A
   
   for sTDA-xTB:
   * S. Grimme and C. Bannwarth, J. Chem. Phys., 2016, 145, 054103.
     DOI: 10.1063/1.4959605
   
   in the mass-spec context:
   * V. Asgeirsson, C. Bauer and S. Grimme, Chem. Sci., 2017, 8, 4879.
     DOI: 10.1039/c7sc00601b
   * J. Koopman and S. Grimme, ACS Omega 2019, 4, 12, 15120-15133.
     DOI: 10.1021/acsomega.9b02011
   
   for metadynamics refer to:
   * S. Grimme, J. Chem. Theory Comput., 2019, 155, 2847-2862
     DOI: 10.1021/acs.jctc.9b00143
   
   for SPH calculations refer to:
   * S. Spicher and S. Grimme, J. Chem. Theory Comput., 2021, 17, 1701-1714
     DOI: 10.1021/acs.jctc.0c01306
   
   for ONIOM refer to:
   * C. Plett, A. Katbashev, S. Ehlert, S. Grimme, M. Bursch,
     Phys. Chem. Chem. Phys., 2023, 25, 17860-17868. DOI: 10.1039/D3CP02178E
   
   for DIPRO refer to:
   * J. Kohn, N. Gildemeister, S. Grimme, D. Fazzi, A. Hansen,
     J. Chem. Phys., 2023, just accepted.
   
   for PTB refer to:
   * S. Grimme, M. Mueller, A. Hansen, J. Chem. Phys., 2023, 158, 124111.
     DOI: 10.1063/5.0137838
   
   with help from (in alphabetical order)
   P. Atkinson, C. Bannwarth, F. Bohle, G. Brandenburg, E. Caldeweyher
   M. Checinski, S. Dohm, S. Ehlert, S. Ehrlich, I. Gerasimov, C. Hölzer
   A. Katbashev, J. Kohn, J. Koopman, C. Lavigne, S. Lehtola, F. März, M. Müller,
   F. Musil, H. Neugebauer, J. Pisarek, C. Plett, P. Pracht, F. Pultar,
   J. Seibert, P. Shushkov, S. Spicher, M. Stahn, M. Steiner, T. Strunk,
   J. Stückrath, T. Rose, and J. Unsleber
   
 * started run on 2026/07/25 at 12:24:19.004     
   ID    Z sym.   atoms
    1    7 N      1, 9, 14
    2    6 C      2-7, 10-12, 15
    3   16 S      8
    4    8 O      13, 16, 17
    5    1 H      18-28

           -------------------------------------------------
          |                Calculation Setup                |
           -------------------------------------------------

          program call               : /opt/homebrew/Caskroom/miniforge/base/envs/qchem/bin/xtb source.xyz --chrg 0 --uhf 0 --gfn 2 --alpb water --acc 0.2 --ohess tight --parallel 1 --json --ceasefiles -I control.inp
          coordinate file            : source.xyz
          omp threads                :                     1


           -------------------------------------------------
          |                 G F N 2 - x T B                 |
           -------------------------------------------------

        Reference                      10.1021/acs.jctc.8b01176
      * Hamiltonian:
        H0-scaling (s, p, d)           1.850000    2.230000    2.230000
        zeta-weighting                 0.500000
      * Dispersion:
        s8                             2.700000
        a1                             0.520000
        a2                             5.000000
        s9                             5.000000
      * Repulsion:
        kExp                           1.500000    1.000000
        rExp                           1.000000
      * Coulomb:
        alpha                          2.000000
        third order                    shell-resolved
        anisotropic                    true
        a3                             3.000000
        a5                             4.000000
        cn-shift                       1.200000
        cn-exp                         4.000000
        max-rad                        5.000000

      * Solvation model:               ALPB
        Solvent                        water
        Parameter file                 internal GFN2-xTB/ALPB
        Dielectric constant                8.0200E+01
        Reference state                gsolv [1 M gas/solution]
        Free energy shift                  1.0808E-03 Eh       6.7819E-01 kcal/mol
        Temperature                        2.9815E+02 K
        Density                            1.0000E+00 kg/L
        Solvent mass                       1.8000E+01 g/mol
        Interaction kernel             P16
        Born radius scaling (c1)           1.4744E+00
        Born radii integrator          GBOBC
        Born offset                        0.0000E+00 a0       0.0000E+00 AA
        H-bond correction              true
        Ion screening                  false
        Surface tension                    1.0000E-05 Eh       1.5569E+01 dyn/cm
        Grid points                               230 per atom

          ...................................................
          :                      SETUP                      :
          :.................................................:
          :  # basis functions                  85          :
          :  # atomic orbitals                  84          :
          :  # shells                           46          :
          :  # electrons                        90          :
          :  max. iterations                   250          :
          :  Hamiltonian                  GFN2-xTB          :
          :  restarted?                      false          :
          :  GBSA solvation                   true          :
          :  PC potential                    false          :
          :  electronic temp.          300.0000000     K    :
          :  accuracy                    0.2000000          :
          :  -> integral cutoff          0.3198970E+02      :
          :  -> integral neglect         0.2000000E-08      :
          :  -> SCF convergence          0.2000000E-06 Eh   :
          :  -> wf. convergence          0.2000000E-04 e    :
          :  Broyden damping             0.4000000          :
          :  net charge                          0          :
          :  unpaired electrons                  0          :
          ...................................................

 iter      E             dE          RMSdq      gap      omega  full diag
   1    -51.7743310 -0.517743E+02  0.550E+00    2.96       0.0  T
   2    -51.8413294 -0.669984E-01  0.336E+00    3.32       1.0  T
   3    -51.8382024  0.312703E-02  0.152E+00    3.44       1.0  T
   4    -51.8535157 -0.153133E-01  0.470E-01    3.32       1.0  T
   5    -51.8558211 -0.230545E-02  0.211E-01    3.36       1.0  T
   6    -51.8559479 -0.126808E-03  0.114E-01    3.34       1.0  T
   7    -51.8559955 -0.475305E-04  0.566E-02    3.35       1.0  T
   8    -51.8560135 -0.180721E-04  0.245E-02    3.35       1.0  T
   9    -51.8560161 -0.255250E-05  0.699E-03    3.35       2.7  T
  10    -51.8560163 -0.207295E-06  0.369E-03    3.35       5.1  T
  11    -51.8560164 -0.113609E-06  0.157E-03    3.35      12.0  T
  12    -51.8560164 -0.507960E-08  0.389E-04    3.35      48.6  T
  13    -51.8560164 -0.594788E-09  0.146E-04    3.35     129.5  T
  14    -51.8560164 -0.632951E-10  0.707E-05    3.35     267.3  T

   *** convergence criteria satisfied after 14 iterations ***

         #    Occupation            Energy/Eh            Energy/eV
      -------------------------------------------------------------
         1        2.0000           -0.7949456             -21.6316
       ...           ...                  ...                  ...
        39        2.0000           -0.4432105             -12.0604
        40        2.0000           -0.4369496             -11.8900
        41        2.0000           -0.4250269             -11.5656
        42        2.0000           -0.4234789             -11.5234
        43        2.0000           -0.4212461             -11.4627
        44        2.0000           -0.4134491             -11.2505
        45        2.0000           -0.3770797             -10.2609 (HOMO)
        46                         -0.2539879              -6.9114 (LUMO)
        47                         -0.2443331              -6.6486
        48                         -0.2390376              -6.5045
        49                         -0.1825211              -4.9667
        50                         -0.1304896              -3.5508
       ...                                ...                  ...
        84                          1.1686023              31.7993
      -------------------------------------------------------------
                  HL-Gap            0.1230918 Eh            3.3495 eV
             Fermi-level           -0.3155338 Eh           -8.5861 eV

 SCC (total)                   0 d,  0 h,  0 min,  0.022 sec
 SCC setup                      ...        0 min,  0.000 sec (  2.290%)
 Dispersion                     ...        0 min,  0.000 sec (  0.536%)
 classical contributions        ...        0 min,  0.000 sec (  0.217%)
 integral evaluation            ...        0 min,  0.002 sec ( 11.108%)
 iterations                     ...        0 min,  0.011 sec ( 51.078%)
 molecular gradient             ...        0 min,  0.007 sec ( 33.632%)
 printout                       ...        0 min,  0.000 sec (  1.097%)

         :::::::::::::::::::::::::::::::::::::::::::::::::::::
         ::                     SUMMARY                     ::
         :::::::::::::::::::::::::::::::::::::::::::::::::::::
         :: total energy             -51.225638016456 Eh    ::
         :: total w/o Gsasa/hb       -51.216065346381 Eh    ::
         :: gradient norm              0.050009459098 Eh/a0 ::
         :: HOMO-LUMO gap              3.349497442082 eV    ::
         ::.................................................::
         :: SCC energy               -51.855596206379 Eh    ::
         :: -> isotropic ES            0.125415438801 Eh    ::
         :: -> anisotropic ES         -0.018328840052 Eh    ::
         :: -> anisotropic XC          0.021765494575 Eh    ::
         :: -> dispersion             -0.030891666498 Eh    ::
         :: -> Gsolv                  -0.043803400271 Eh    ::
         ::    -> Gelec               -0.034230730196 Eh    ::
         ::    -> Gsasa               -0.000917407073 Eh    ::
         ::    -> Ghb                 -0.009736022701 Eh    ::
         ::    -> Gshift               0.001080759698 Eh    ::
         :: repulsion energy           0.629958189922 Eh    ::
         :: add. restraining           0.000000000000 Eh    ::
         :: total charge              -0.000000000000 e     ::
         :::::::::::::::::::::::::::::::::::::::::::::::::::::

      ----------------------------------------------------------- 
     |                   =====================                   |
     |                        A N C O P T                        |
     |                   =====================                   |
     |               Approximate Normal Coordinate               |
     |                Rational Function Optimizer                |
      ----------------------------------------------------------- 

Optimization log is written to '/dev/null'
      ----------------------------------------------------------- 
     |                   =====================                   |
     |                        A N C O P T                        |
     |                   =====================                   |
     |               Approximate Normal Coordinate               |
     |                Rational Function Optimizer                |
      ----------------------------------------------------------- 

          ...................................................
          :                      SETUP                      :
          :.................................................:
          :   optimization level             tight          :
          :   max. optcycles                   200          :
          :   ANC micro-cycles                  20          :
          :   degrees of freedom                78          :
          :.................................................:
          :   RF solver                   davidson          :
          :   write xtbopt.log                true          :
          :   linear?                        false          :
          :   energy convergence         0.1000000E-05 Eh   :
          :   grad. convergence          0.8000000E-03 Eh/α :
          :   maxmium RF displ.          1.0000000          :
          :   Hlow (freq-cutoff)         0.1000000E-01      :
          :   Hmax (freq-cutoff)         5.0000000          :
          :   S6 in model hess.         20.0000000          :
          ...................................................

generating ANC from exact Hessian ...
Using Lindh-Hessian (1995)
 Shifting diagonal of input Hessian by    9.5699327597411343E-003
 Lowest  eigenvalues of input Hessian
    0.000000    0.000000    0.000000    0.000000    0.000000    0.000000
    0.010000    0.011254    0.011462    0.012898    0.015571    0.016726
    0.021168    0.023951    0.024373    0.025847    0.028502    0.032192
 Highest eigenvalues
    1.989481    1.992474    2.104671    2.140625    2.610201    3.528794


........................................................................
.............................. CYCLE    1 ..............................
........................................................................

 iter      E             dE          RMSdq      gap      omega  full diag
   1    -51.8560164 -0.518560E+02  0.170E-05    3.35       0.0  T
   2    -51.8560164 -0.109424E-11  0.106E-05    3.35    1780.2  T
   3    -51.8560164 -0.852651E-13  0.666E-06    3.35    2837.2  T
     SCC iter.                  ...        0 min,  0.002 sec
     gradient                   ...        0 min,  0.008 sec
 * total energy  :   -51.2256380 Eh     change       -0.2810907E-10 Eh
   gradient norm :     0.0500093 Eh/α   predicted     0.0000000E+00 (-100.00%)
   displ. norm   :     0.1217234 α      lambda       -0.3088741E-02
   maximum displ.:     0.0385458 α      in ANC's #6, #18, #39, ...

........................................................................
.............................. CYCLE    2 ..............................
........................................................................

 iter      E             dE          RMSdq      gap      omega  full diag
   1    -51.8689943 -0.518690E+02  0.127E-01    3.40       0.0  T
   2    -51.8690517 -0.574342E-04  0.715E-02    3.41       1.0  T
   3    -51.8690528 -0.102741E-05  0.324E-02    3.41       1.0  T
   4    -51.8690582 -0.546669E-05  0.920E-03    3.41       2.1  T
   5    -51.8690590 -0.745091E-06  0.284E-03    3.41       6.6  T
   6    -51.8690590 -0.703320E-07  0.138E-03    3.41      13.7  T
   7    -51.8690590 -0.852674E-08  0.585E-04    3.41      32.3  T
   8    -51.8690590 -0.223810E-08  0.290E-04    3.41      65.2  T
   9    -51.8690590 -0.302357E-09  0.964E-05    3.41     196.0  T
  10    -51.8690590 -0.447145E-10  0.494E-05    3.41     382.8  T
     SCC iter.                  ...        0 min,  0.008 sec
     gradient                   ...        0 min,  0.008 sec
 * total energy  :   -51.2278821 Eh     change       -0.2244057E-02 Eh
   gradient norm :     0.0268935 Eh/α   predicted    -0.1567295E-02 ( -30.16%)
   displ. norm   :     0.1395818 α      lambda       -0.1714414E-02
   maximum displ.:     0.0692633 α      in ANC's #6, #3, #20, ...

........................................................................
.............................. CYCLE    3 ..............................
........................................................................

 iter      E             dE          RMSdq      gap      omega  full diag
   1    -51.8757306 -0.518757E+02  0.131E-01    3.46       0.0  T
   2    -51.8758125 -0.818524E-04  0.707E-02    3.47       1.0  T
   3    -51.8758190 -0.647631E-05  0.344E-02    3.47       1.0  T
   4    -51.8758235 -0.451621E-05  0.107E-02    3.47       1.8  T
   5    -51.8758240 -0.540051E-06  0.408E-03    3.47       4.6  T
   6    -51.8758241 -0.111335E-06  0.177E-03    3.47      10.7  T
   7    -51.8758241 -0.155848E-07  0.848E-04    3.47      22.3  T
   8    -51.8758241 -0.451865E-08  0.399E-04    3.47      47.3  T
   9    -51.8758241 -0.610783E-09  0.115E-04    3.47     164.1  T
  10    -51.8758241 -0.496030E-10  0.615E-05    3.47     307.1  T
     SCC iter.                  ...        0 min,  0.008 sec
     gradient                   ...        0 min,  0.008 sec
 * total energy  :   -51.2288635 Eh     change       -0.9814521E-03 Eh
   gradient norm :     0.0101666 Eh/α   predicted    -0.8739603E-03 ( -10.95%)
   displ. norm   :     0.0745261 α      lambda       -0.2468667E-03
   maximum displ.:     0.0423175 α      in ANC's #6, #3, #7, ...

........................................................................
.............................. CYCLE    4 ..............................
........................................................................

 iter      E             dE          RMSdq      gap      omega  full diag
   1    -51.8743381 -0.518743E+02  0.486E-02    3.47       0.0  T
   2    -51.8743432 -0.512045E-05  0.245E-02    3.47       1.0  T
   3    -51.8743434 -0.194531E-06  0.103E-02    3.47       1.8  T
   4    -51.8743443 -0.861241E-06  0.386E-03    3.47       4.9  T
   5    -51.8743443 -0.182679E-07  0.154E-03    3.47      12.3  T
   6    -51.8743443 -0.194626E-07  0.453E-04    3.47      41.7  T
   7    -51.8743443 -0.119542E-08  0.221E-04    3.47      85.4  T
   8    -51.8743443 -0.237414E-09  0.855E-05    3.47     221.0  T
   9    -51.8743443 -0.224389E-10  0.315E-05    3.47     599.2  T
     SCC iter.                  ...        0 min,  0.007 sec
     gradient                   ...        0 min,  0.008 sec
 * total energy  :   -51.2290540 Eh     change       -0.1905231E-03 Eh
   gradient norm :     0.0083416 Eh/α   predicted    -0.1241228E-03 ( -34.85%)
   displ. norm   :     0.1320013 α      lambda       -0.2846893E-03
   maximum displ.:     0.0780223 α      in ANC's #6, #3, #2, ...

........................................................................
.............................. CYCLE    5 ..............................
........................................................................

 iter      E             dE          RMSdq      gap      omega  full diag
   1    -51.8717549 -0.518718E+02  0.735E-02    3.45       0.0  T
   2    -51.8717600 -0.511062E-05  0.359E-02    3.46       1.0  T
   3    -51.8717598  0.235634E-06  0.127E-02    3.46       1.5  T
   4    -51.8717611 -0.134996E-05  0.578E-03    3.46       3.3  T
   5    -51.8717612 -0.621148E-07  0.167E-03    3.46      11.3  T
   6    -51.8717612 -0.255884E-07  0.558E-04    3.46      33.9  T
   7    -51.8717612 -0.163933E-08  0.219E-04    3.46      86.2  T
   8    -51.8717612 -0.140730E-09  0.900E-05    3.46     209.9  T
   9    -51.8717612 -0.247908E-10  0.303E-05    3.46     623.7  T
     SCC iter.                  ...        0 min,  0.007 sec
     gradient                   ...        0 min,  0.008 sec
 * total energy  :   -51.2292337 Eh     change       -0.1796705E-03 Eh
   gradient norm :     0.0058931 Eh/α   predicted    -0.1448297E-03 ( -19.39%)
   displ. norm   :     0.0750165 α      lambda       -0.7892670E-04
   maximum displ.:     0.0428083 α      in ANC's #6, #3, #1, ...

........................................................................
.............................. CYCLE    6 ..............................
........................................................................

 iter      E             dE          RMSdq      gap      omega  full diag
   1    -51.8718081 -0.518718E+02  0.351E-02    3.45       0.0  T
   2    -51.8718099 -0.178525E-05  0.175E-02    3.45       1.1  T
   3    -51.8718099  0.373747E-07  0.718E-03    3.45       2.6  T
   4    -51.8718102 -0.357661E-06  0.285E-03    3.45       6.6  T
   5    -51.8718103 -0.315181E-07  0.983E-04    3.45      19.2  T
   6    -51.8718103 -0.498955E-08  0.330E-04    3.45      57.3  T
   7    -51.8718103 -0.714756E-09  0.140E-04    3.45     135.0  T
   8    -51.8718103 -0.391935E-10  0.595E-05    3.45     317.9  T
     SCC iter.                  ...        0 min,  0.006 sec
     gradient                   ...        0 min,  0.008 sec
 * total energy  :   -51.2292910 Eh     change       -0.5730483E-04 Eh
   gradient norm :     0.0039255 Eh/α   predicted    -0.4008614E-04 ( -30.05%)
   displ. norm   :     0.0723177 α      lambda       -0.5551775E-04
   maximum displ.:     0.0367299 α      in ANC's #1, #6, #3, ...

........................................................................
.............................. CYCLE    7 ..............................
........................................................................

 iter      E             dE          RMSdq      gap      omega  full diag
   1    -51.8730586 -0.518731E+02  0.296E-02    3.44       0.0  T
   2    -51.8730612 -0.259288E-05  0.161E-02    3.44       1.2  T
   3    -51.8730614 -0.221378E-06  0.848E-03    3.44       2.2  T
   4    -51.8730618 -0.364482E-06  0.223E-03    3.44       8.5  T
   5    -51.8730618 -0.259064E-07  0.988E-04    3.44      19.1  T
   6    -51.8730618 -0.578508E-08  0.358E-04    3.44      52.8  T
   7    -51.8730618 -0.616950E-09  0.150E-04    3.44     125.9  T
   8    -51.8730618 -0.520828E-10  0.627E-05    3.44     301.4  T
     SCC iter.                  ...        0 min,  0.006 sec
     gradient                   ...        0 min,  0.008 sec
 * total energy  :   -51.2293277 Eh     change       -0.3663497E-04 Eh
   gradient norm :     0.0024538 Eh/α   predicted    -0.2791872E-04 ( -23.79%)
   displ. norm   :     0.0454430 α      lambda       -0.2061403E-04
   maximum displ.:     0.0304818 α      in ANC's #1, #3, #2, ...

........................................................................
.............................. CYCLE    8 ..............................
........................................................................

 iter      E             dE          RMSdq      gap      omega  full diag
   1    -51.8740612 -0.518741E+02  0.162E-02    3.44       0.0  T
   2    -51.8740621 -0.870218E-06  0.934E-03    3.44       2.0  T
   3    -51.8740622 -0.114608E-06  0.523E-03    3.44       3.6  T
   4    -51.8740623 -0.127600E-06  0.949E-04    3.44      19.9  T
   5    -51.8740624 -0.919054E-08  0.441E-04    3.44      42.8  T
   6    -51.8740624 -0.648583E-09  0.193E-04    3.44      97.8  T
   7    -51.8740624 -0.235929E-09  0.679E-05    3.44     278.4  T
     SCC iter.                  ...        0 min,  0.006 sec
     gradient                   ...        0 min,  0.009 sec
 * total energy  :   -51.2293428 Eh     change       -0.1510221E-04 Eh
   gradient norm :     0.0023031 Eh/α   predicted    -0.1039082E-04 ( -31.20%)
   displ. norm   :     0.0513277 α      lambda       -0.1802451E-04
   maximum displ.:     0.0384142 α      in ANC's #1, #3, #2, ...

........................................................................
.............................. CYCLE    9 ..............................
........................................................................

 iter      E             dE          RMSdq      gap      omega  full diag
   1    -51.8747639 -0.518748E+02  0.173E-02    3.44       0.0  T
   2    -51.8747645 -0.677642E-06  0.967E-03    3.44       2.0  T
   3    -51.8747645  0.424698E-08  0.517E-03    3.44       3.7  T
   4    -51.8747647 -0.208086E-06  0.107E-03    3.44      17.7  T
   5    -51.8747647 -0.677692E-08  0.451E-04    3.44      41.9  T
   6    -51.8747647 -0.365411E-09  0.173E-04    3.44     109.4  T
   7    -51.8747647 -0.259561E-09  0.670E-05    3.44     282.0  T
     SCC iter.                  ...        0 min,  0.006 sec
     gradient                   ...        0 min,  0.008 sec
 * total energy  :   -51.2293564 Eh     change       -0.1364254E-04 Eh
   gradient norm :     0.0022843 Eh/α   predicted    -0.9037473E-05 ( -33.76%)
   displ. norm   :     0.0652604 α      lambda       -0.1844075E-04
   maximum displ.:     0.0504500 α      in ANC's #1, #3, #2, ...

........................................................................
.............................. CYCLE   10 ..............................
........................................................................

 iter      E             dE          RMSdq      gap      omega  full diag
   1    -51.8750068 -0.518750E+02  0.209E-02    3.44       0.0  T
   2    -51.8750075 -0.674736E-06  0.116E-02    3.44       1.6  T
   3    -51.8750074  0.114703E-06  0.537E-03    3.44       3.5  T
   4    -51.8750077 -0.306369E-06  0.134E-03    3.44      14.1  T
   5    -51.8750077 -0.101762E-07  0.490E-04    3.44      38.6  T
   6    -51.8750077 -0.471431E-09  0.185E-04    3.44     102.0  T
   7    -51.8750077 -0.177771E-09  0.782E-05    3.44     241.6  T
     SCC iter.                  ...        0 min,  0.006 sec
     gradient                   ...        0 min,  0.008 sec
 * total energy  :   -51.2293704 Eh     change       -0.1397179E-04 Eh
   gradient norm :     0.0021886 Eh/α   predicted    -0.9267043E-05 ( -33.67%)
   displ. norm   :     0.0724727 α      lambda       -0.1651852E-04
   maximum displ.:     0.0569433 α      in ANC's #1, #3, #2, ...

........................................................................
.............................. CYCLE   11 ..............................
........................................................................

 iter      E             dE          RMSdq      gap      omega  full diag
   1    -51.8747980 -0.518748E+02  0.219E-02    3.44       0.0  T
   2    -51.8747985 -0.520199E-06  0.123E-02    3.44       1.5  T
   3    -51.8747984  0.980560E-07  0.462E-03    3.44       4.1  T
   4    -51.8747987 -0.235248E-06  0.133E-03    3.44      14.2  T
   5    -51.8747987 -0.121792E-07  0.501E-04    3.44      37.7  T
   6    -51.8747987 -0.894886E-09  0.198E-04    3.44      95.6  T
   7    -51.8747987 -0.198682E-09  0.750E-05    3.44     251.8  T
     SCC iter.                  ...        0 min,  0.006 sec
     gradient                   ...        0 min,  0.008 sec
 * total energy  :   -51.2293828 Eh     change       -0.1247008E-04 Eh
   gradient norm :     0.0019407 Eh/α   predicted    -0.8307821E-05 ( -33.38%)
   displ. norm   :     0.1112705 α      lambda       -0.1333303E-04
   maximum displ.:     0.0875936 α      in ANC's #1, #2, #3, ...

........................................................................
.............................. CYCLE   12 ..............................
........................................................................

 iter      E             dE          RMSdq      gap      omega  full diag
   1    -51.8741989 -0.518742E+02  0.314E-02    3.44       0.0  T
   2    -51.8741997 -0.756654E-06  0.179E-02    3.44       1.1  T
   3    -51.8741995  0.132500E-06  0.568E-03    3.43       3.3  T
   4    -51.8741999 -0.349534E-06  0.154E-03    3.44      12.3  T
   5    -51.8741999 -0.141494E-07  0.644E-04    3.44      29.4  T
   6    -51.8741999 -0.144236E-08  0.246E-04    3.44      76.7  T
   7    -51.8741999 -0.464873E-09  0.889E-05    3.44     212.6  T
   8    -51.8741999 -0.236682E-10  0.335E-05    3.44     564.6  T
     SCC iter.                  ...        0 min,  0.007 sec
     gradient                   ...        0 min,  0.008 sec
 * total energy  :   -51.2293958 Eh     change       -0.1296056E-04 Eh
   gradient norm :     0.0018733 Eh/α   predicted    -0.6708005E-05 ( -48.24%)
   displ. norm   :     0.0635900 α      lambda       -0.6902068E-05
   maximum displ.:     0.0507026 α      in ANC's #1, #2, #3, ...

........................................................................
.............................. CYCLE   13 ..............................
........................................................................

 iter      E             dE          RMSdq      gap      omega  full diag
   1    -51.8742264 -0.518742E+02  0.164E-02    3.43       0.0  T
   2    -51.8742265 -0.177882E-06  0.931E-03    3.43       2.0  T
   3    -51.8742265  0.508681E-07  0.261E-03    3.43       7.2  T
   4    -51.8742266 -0.955648E-07  0.794E-04    3.43      23.8  T
   5    -51.8742266 -0.555365E-08  0.259E-04    3.43      72.8  T
   6    -51.8742266 -0.992344E-10  0.940E-05    3.43     201.1  T
   7    -51.8742266 -0.467679E-10  0.328E-05    3.43     576.4  T
     SCC iter.                  ...        0 min,  0.006 sec
     gradient                   ...        0 min,  0.008 sec
 * total energy  :   -51.2294041 Eh     change       -0.8307218E-05 Eh
   gradient norm :     0.0012796 Eh/α   predicted    -0.3458007E-05 ( -58.37%)
   displ. norm   :     0.0906433 α      lambda       -0.8029723E-05
   maximum displ.:     0.0712173 α      in ANC's #1, #2, #6, ...

........................................................................
.............................. CYCLE   14 ..............................
........................................................................

 iter      E             dE          RMSdq      gap      omega  full diag
   1    -51.8742463 -0.518742E+02  0.228E-02    3.43       0.0  T
   2    -51.8742467 -0.306194E-06  0.129E-02    3.43       1.5  T
   3    -51.8742466  0.156923E-07  0.268E-03    3.43       7.1  T
   4    -51.8742467 -0.823860E-07  0.119E-03    3.43      15.9  T
   5    -51.8742467 -0.145839E-07  0.354E-04    3.43      53.5  T
   6    -51.8742467 -0.362519E-09  0.156E-04    3.43     121.1  T
   7    -51.8742467 -0.170900E-09  0.436E-05    3.43     433.1  T
     SCC iter.                  ...        0 min,  0.006 sec
     gradient                   ...        0 min,  0.008 sec
 * total energy  :   -51.2294122 Eh     change       -0.8069140E-05 Eh
   gradient norm :     0.0012023 Eh/α   predicted    -0.4030341E-05 ( -50.05%)
   displ. norm   :     0.0719996 α      lambda       -0.5848218E-05
   maximum displ.:     0.0576531 α      in ANC's #1, #6, #2, ...

........................................................................
.............................. CYCLE   15 ..............................
........................................................................

 iter      E             dE          RMSdq      gap      omega  full diag
   1    -51.8747551 -0.518748E+02  0.164E-02    3.43       0.0  T
   2    -51.8747552 -0.113378E-06  0.941E-03    3.43       2.0  T
   3    -51.8747552  0.419674E-07  0.212E-03    3.43       8.9  T
   4    -51.8747553 -0.735206E-07  0.666E-04    3.43      28.4  T
   5    -51.8747553 -0.236125E-08  0.255E-04    3.43      74.2  T
   6    -51.8747553 -0.435001E-09  0.991E-05    3.43     190.7  T
   7    -51.8747553 -0.498730E-10  0.380E-05    3.43     497.6  T
     SCC iter.                  ...        0 min,  0.006 sec
     gradient                   ...        0 min,  0.008 sec
 * total energy  :   -51.2294156 Eh     change       -0.3372306E-05 Eh
   gradient norm :     0.0017834 Eh/α   predicted    -0.2940063E-05 ( -12.82%)
   displ. norm   :     0.0391394 α      lambda       -0.3136126E-05
   maximum displ.:     0.0311699 α      in ANC's #1, #2, #3, ...

........................................................................
.............................. CYCLE   16 ..............................
........................................................................

 iter      E             dE          RMSdq      gap      omega  full diag
   1    -51.8745639 -0.518746E+02  0.100E-02    3.43       0.0  T
   2    -51.8745640 -0.702641E-07  0.575E-03    3.43       3.3  T
   3    -51.8745640  0.317147E-07  0.186E-03    3.43      10.2  T
   4    -51.8745640 -0.552004E-07  0.396E-04    3.43      47.7  T
   5    -51.8745640 -0.606427E-09  0.184E-04    3.43     103.0  T
   6    -51.8745640 -0.731575E-10  0.688E-05    3.43     274.9  T
     SCC iter.                  ...        0 min,  0.005 sec
     gradient                   ...        0 min,  0.008 sec
 * total energy  :   -51.2294189 Eh     change       -0.3319382E-05 Eh
   gradient norm :     0.0007416 Eh/α   predicted    -0.1571313E-05 ( -52.66%)
   displ. norm   :     0.0270231 α      lambda       -0.1786796E-05
   maximum displ.:     0.0217662 α      in ANC's #1, #2, #4, ...

........................................................................
.............................. CYCLE   17 ..............................
........................................................................

 iter      E             dE          RMSdq      gap      omega  full diag
   1    -51.8744602 -0.518745E+02  0.776E-03    3.43       0.0  T
   2    -51.8744603 -0.722182E-07  0.447E-03    3.43       4.2  T
   3    -51.8744602  0.196408E-07  0.163E-03    3.43      11.6  T
   4    -51.8744603 -0.359506E-07  0.356E-04    3.43      53.1  T
   5    -51.8744603 -0.104910E-08  0.157E-04    3.43     120.3  T
   6    -51.8744603 -0.141100E-09  0.727E-05    3.43     259.9  T
     SCC iter.                  ...        0 min,  0.005 sec
     gradient                   ...        0 min,  0.008 sec
 * total energy  :   -51.2294210 Eh     change       -0.2092438E-05 Eh
   gradient norm :     0.0003661 Eh/α   predicted    -0.8949059E-06 ( -57.23%)
   displ. norm   :     0.0356803 α      lambda       -0.2165740E-05
   maximum displ.:     0.0248850 α      in ANC's #1, #4, #2, ...

........................................................................
.............................. CYCLE   18 ..............................
........................................................................

 iter      E             dE          RMSdq      gap      omega  full diag
   1    -51.8744528 -0.518745E+02  0.114E-02    3.43       0.0  T
   2    -51.8744529 -0.884469E-07  0.662E-03    3.43       2.9  T
   3    -51.8744528  0.216458E-07  0.164E-03    3.43      11.5  T
   4    -51.8744529 -0.421079E-07  0.445E-04    3.43      42.5  T
   5    -51.8744529 -0.146302E-08  0.198E-04    3.43      95.5  T
   6    -51.8744529 -0.177273E-09  0.951E-05    3.43     198.7  T
     SCC iter.                  ...        0 min,  0.005 sec
     gradient                   ...        0 min,  0.008 sec
 * total energy  :   -51.2294235 Eh     change       -0.2526842E-05 Eh
   gradient norm :     0.0007761 Eh/α   predicted    -0.1084249E-05 ( -57.09%)
   displ. norm   :     0.0554940 α      lambda       -0.2822930E-05
   maximum displ.:     0.0370342 α      in ANC's #1, #4, #2, ...

........................................................................
.............................. CYCLE   19 ..............................
........................................................................

 iter      E             dE          RMSdq      gap      omega  full diag
   1    -51.8743578 -0.518744E+02  0.181E-02    3.43       0.0  T
   2    -51.8743579 -0.120605E-06  0.105E-02    3.43       1.8  T
   3    -51.8743579  0.175270E-07  0.189E-03    3.43      10.0  T
   4    -51.8743580 -0.578761E-07  0.575E-04    3.43      32.8  T
   5    -51.8743580 -0.734161E-09  0.245E-04    3.43      77.3  T
   6    -51.8743580 -0.298591E-09  0.101E-04    3.43     187.4  T
   7    -51.8743580 -0.887042E-10  0.343E-05    3.43     550.6  T
     SCC iter.                  ...        0 min,  0.006 sec
     gradient                   ...        0 min,  0.008 sec
 * total energy  :   -51.2294269 Eh     change       -0.3428640E-05 Eh
   gradient norm :     0.0010336 Eh/α   predicted    -0.1418360E-05 ( -58.63%)
   displ. norm   :     0.0740042 α      lambda       -0.3382598E-05
   maximum displ.:     0.0488477 α      in ANC's #1, #4, #2, ...

........................................................................
.............................. CYCLE   20 ..............................
........................................................................

 iter      E             dE          RMSdq      gap      omega  full diag
   1    -51.8743324 -0.518743E+02  0.244E-02    3.43       0.0  T
   2    -51.8743325 -0.174036E-06  0.142E-02    3.43       1.3  T
   3    -51.8743325  0.146128E-07  0.235E-03    3.42       8.0  T
   4    -51.8743326 -0.826066E-07  0.753E-04    3.42      25.1  T
   5    -51.8743326 -0.484839E-09  0.290E-04    3.42      65.2  T
   6    -51.8743326 -0.840508E-09  0.924E-05    3.42     204.6  T
   7    -51.8743326 -0.514220E-10  0.396E-05    3.42     477.5  T
     SCC iter.                  ...        0 min,  0.005 sec
     gradient                   ...        0 min,  0.007 sec
 * total energy  :   -51.2294311 Eh     change       -0.4213038E-05 Eh
   gradient norm :     0.0011488 Eh/α   predicted    -0.1698258E-05 ( -59.69%)
   displ. norm   :     0.0818350 α      lambda       -0.3605802E-05
   maximum displ.:     0.0559373 α      in ANC's #1, #4, #2, ...
 * RMSD in coord.:     0.2083363 α      energy gain  -0.3793119E-02 Eh

generating ANC from exact Hessian ...
Using Lindh-Hessian (1995)
 Shifting diagonal of input Hessian by    9.5556090936324313E-003
 Lowest  eigenvalues of input Hessian
    0.000000    0.000000    0.000000    0.000000    0.000000    0.000000
    0.010000    0.011190    0.011453    0.013062    0.015839    0.016557
    0.021428    0.023821    0.024756    0.026017    0.029382    0.032218
 Highest eigenvalues
    2.000133    2.044972    2.164218    2.196354    2.621529    3.387207


........................................................................
.............................. CYCLE   21 ..............................
........................................................................

 iter      E             dE          RMSdq      gap      omega  full diag
   1    -51.8742641 -0.518743E+02  0.263E-02    3.42       0.0  T
   2    -51.8742643 -0.207274E-06  0.152E-02    3.42       1.2  T
   3    -51.8742643  0.155760E-07  0.255E-03    3.42       7.4  T
   4    -51.8742644 -0.888053E-07  0.848E-04    3.42      22.3  T
   5    -51.8742644 -0.291952E-08  0.383E-04    3.42      49.4  T
   6    -51.8742644 -0.402991E-09  0.132E-04    3.42     143.3  T
   7    -51.8742644 -0.216318E-09  0.440E-05    3.42     429.7  T
     SCC iter.                  ...        0 min,  0.006 sec
     gradient                   ...        0 min,  0.008 sec
 * total energy  :   -51.2294354 Eh     change       -0.4223679E-05 Eh
   gradient norm :     0.0009099 Eh/α   predicted     0.0000000E+00 (-100.00%)
   displ. norm   :     0.0104046 α      lambda       -0.6149460E-06
   maximum displ.:     0.0087750 α      in ANC's #1, #11, #9, ...

........................................................................
.............................. CYCLE   22 ..............................
........................................................................

 iter      E             dE          RMSdq      gap      omega  full diag
   1    -51.8744202 -0.518744E+02  0.285E-03    3.42       0.0  T
   2    -51.8744202 -0.107965E-07  0.165E-03    3.42      11.5  T
   3    -51.8744202  0.794174E-10  0.524E-04    3.42      36.0  T
   4    -51.8744202 -0.110761E-08  0.185E-04    3.42     101.9  T
   5    -51.8744202 -0.488555E-09  0.571E-05    3.42     330.8  T
     SCC iter.                  ...        0 min,  0.004 sec
     gradient                   ...        0 min,  0.008 sec
 * total energy  :   -51.2294369 Eh     change       -0.1497129E-05 Eh
   gradient norm :     0.0004175 Eh/α   predicted    -0.6507502E-06 ( -56.53%)
   displ. norm   :     0.0193609 α      lambda       -0.1257990E-05
   maximum displ.:     0.0167868 α      in ANC's #1, #9, #11, ...

........................................................................
.............................. CYCLE   23 ..............................
........................................................................

 iter      E             dE          RMSdq      gap      omega  full diag
   1    -51.8744483 -0.518744E+02  0.482E-03    3.42       0.0  T
   2    -51.8744483 -0.242048E-07  0.279E-03    3.42       6.8  T
   3    -51.8744483 -0.271394E-08  0.668E-04    3.42      28.3  T
   4    -51.8744483 -0.289369E-09  0.199E-04    3.42      94.9  T
   5    -51.8744483 -0.422062E-09  0.917E-05    3.42     206.0  T
     SCC iter.                  ...        0 min,  0.004 sec
     gradient                   ...        0 min,  0.008 sec
 * total energy  :   -51.2294383 Eh     change       -0.1448489E-05 Eh
   gradient norm :     0.0003291 Eh/α   predicted    -0.6933607E-06 ( -52.13%)
   displ. norm   :     0.0144873 α      lambda       -0.5629240E-06
   maximum displ.:     0.0134216 α      in ANC's #1, #6, #9, ...

........................................................................
.............................. CYCLE   24 ..............................
........................................................................

 iter      E             dE          RMSdq      gap      omega  full diag
   1    -51.8744180 -0.518744E+02  0.285E-03    3.42       0.0  T
   2    -51.8744180 -0.459775E-08  0.165E-03    3.42      11.4  T
   3    -51.8744180 -0.645066E-09  0.323E-04    3.42      58.5  T
   4    -51.8744180 -0.253628E-09  0.132E-04    3.42     143.2  T
   5    -51.8744180 -0.185103E-09  0.505E-05    3.42     374.2  T
     SCC iter.                  ...        0 min,  0.004 sec
     gradient                   ...        0 min,  0.007 sec
 * total energy  :   -51.2294390 Eh     change       -0.6976326E-06 Eh
   gradient norm :     0.0003357 Eh/α   predicted    -0.2876998E-06 ( -58.76%)
   displ. norm   :     0.0109838 α      lambda       -0.4247648E-06
   maximum displ.:     0.0104319 α      in ANC's #1, #3, #8, ...

   *** GEOMETRY OPTIMIZATION CONVERGED AFTER 24 ITERATIONS ***

------------------------------------------------------------------------
 total energy gain   :        -0.0038010 Eh       -2.3852 kcal/mol
 total RMSD          :         0.2140343 a0        0.1133 Å
 total power (kW/mol):        -0.4158119 (step)  -24.7234 (real)
------------------------------------------------------------------------

 ANCopt (total)                0 d,  0 h,  0 min,  0.404 sec
 optimizer setup                ...        0 min,  0.000 sec (  0.016%)
 model hessian                  ...        0 min,  0.006 sec (  1.410%)
 ANC generation                 ...        0 min,  0.001 sec (  0.224%)
 coordinate transformation      ...        0 min,  0.000 sec (  0.033%)
 single point calculation       ...        0 min,  0.393 sec ( 97.336%)
 optimization log               ...        0 min,  0.002 sec (  0.431%)
 hessian update                 ...        0 min,  0.000 sec (  0.051%)
 rational function              ...        0 min,  0.001 sec (  0.331%)

================
 final structure:
================
28
 xtb: 6.7.1 (edcfbbe)
N           -0.50161887102068       -0.07807763270134        0.07090348040165
C           -0.29288293849810       -0.05395796715949        1.39922980692271
C            1.01389921881203       -0.06145879514329        1.92441650958546
C            1.22410791603534       -0.04412245315422        3.28317919409256
C           -1.37724984698041       -0.02129742667844        2.29809260076065
C           -1.16123751571882       -0.00665513478712        3.65533468972066
C            0.13716960165237       -0.01654501531007        4.14270948294579
S            0.38305597412161       -0.06326151299523        5.88409402464128
N            0.18903445676536       -1.67692573759379        6.33999468319507
C            0.98045436251741       -2.64043994126012        5.76599257606178
C            2.36069856028766       -2.52459492211056        5.45078479349424
C            2.68367086137146       -3.74971548374114        4.94407476499727
O            1.58865539448693       -4.53261979612516        4.95535132885558
N            0.52747731519661       -3.83725685925327        5.46174828461970
C            3.94633461215313       -4.31738635179676        4.42279782667292
O            1.73372151431587        0.32164695614616        6.22638824554736
O           -0.67879855904064        0.62837517019239        6.58170296372137
H            0.27613393202779       -0.08029637311595       -0.56343689232997
H           -1.43643220287002       -0.05666592074193       -0.29325131578697
H            1.85526012990353       -0.07875239693033        1.25092857397258
H            2.21648514400668       -0.03650284674246        3.70298097722177
H           -2.38404324830709       -0.00782900364056        1.91314978276526
H           -1.97634277640073        0.03098570606118        4.35985606278880
H           -0.77602327284675       -1.94853649179080        6.45937956363650
H            2.97313335597085       -1.66502322128650        5.61117758844905
H            4.73685395238190       -3.57985889781294        4.50185051460917
H            3.81702737941599       -4.61176739992357        3.38379849505219
H            4.21212315026006       -5.20576595060479        4.99120099338362

 Bond Distances (Angstroems)
 ---------------------------
N1-C2=1.3448         N1-H18=1.0036        N1-H19=1.0035        C2-N1=1.3448         C2-C3=1.4084         C2-C5=1.4089         
C3-C2=1.4084         C3-C4=1.3750         C3-H20=1.0779        C4-C3=1.3750         C4-C7=1.3860         C4-H21=1.0775        
C5-C2=1.4089         C5-C6=1.3744         C5-H22=1.0780        C6-C5=1.3744         C6-C7=1.3869         C6-H23=1.0780        
C7-C4=1.3860         C7-C6=1.3869         C7-S8=1.7593         S8-C7=1.7593         S8-N9=1.6880         S8-O16=1.4456        
S8-O17=1.4466        N9-S8=1.6880         N9-C10=1.3727        N9-H24=1.0096        C10-N9=1.3727        C10-C11=1.4205       
C10-N14=1.3153       C11-C10=1.4205       C11-C12=1.3645       C11-H25=1.0676       C12-C11=1.3645       C12-O13=1.3462       
C12-C15=1.4793       O13-C12=1.3462       O13-N14=1.3660       N14-C10=1.3153       N14-O13=1.3660       C15-C12=1.4793       
C15-H26=1.0840       C15-H27=1.0876       C15-H28=1.0876       O16-S8=1.4456        O17-S8=1.4466        H18-N1=1.0036        
H19-N1=1.0035        H20-C3=1.0779        H21-C4=1.0775        H22-C5=1.0780        H23-C6=1.0780        H24-N9=1.0096        
H25-C11=1.0676       H26-C15=1.0840       H27-C15=1.0876       H28-C15=1.0876       
 C  H  Rav=1.0798 sigma=0.0062  Rmin=1.0676  Rmax=1.0876     8
 C  C  Rav=1.4004 sigma=0.0329  Rmin=1.3645  Rmax=1.4793     9
 N  H  Rav=1.0056 sigma=0.0029  Rmin=1.0035  Rmax=1.0096     3
 N  C  Rav=1.3443 sigma=0.0234  Rmin=1.3153  Rmax=1.3727     3
 O  C  Rav=1.3462 sigma=0.0000  Rmin=1.3462  Rmax=1.3462     1
 O  N  Rav=1.3660 sigma=0.0000  Rmin=1.3660  Rmax=1.3660     1
 S  C  Rav=1.7593 sigma=0.0000  Rmin=1.7593  Rmax=1.7593     1
 S  N  Rav=1.6880 sigma=0.0000  Rmin=1.6880  Rmax=1.6880     1
 S  O  Rav=1.4461 sigma=0.0005  Rmin=1.4456  Rmax=1.4466     2

 selected bond angles (degree)
 --------------------
H18-N1-C2=120.27               H19-N1-C2=120.18               H19-N1-H18=119.51              C3-C2-N1=120.81                
C5-C2-N1=120.74                C5-C2-C3=118.45                C4-C3-C2=120.68                H20-C3-C2=119.43               
H20-C3-C4=119.89               C7-C4-C3=119.55                H21-C4-C3=121.73               H21-C4-C7=118.72               
C6-C5-C2=120.62                H22-C5-C2=119.43               H22-C5-C6=119.95               C7-C6-C5=119.61                
H23-C6-C5=121.80               H23-C6-C7=118.58               C6-C7-C4=121.09                S8-C7-C4=120.25                
S8-C7-C6=118.61                N9-S8-C7=106.06                O16-S8-C7=110.97               O16-S8-N9=107.34               
O17-S8-C7=111.23               O17-S8-N9=104.03               O17-S8-O16=116.38              C10-N9-S8=119.46               
H24-N9-S8=113.51               H24-N9-C10=114.31              C11-C10-N9=126.57              N14-C10-N9=122.47              
N14-C10-C11=110.95             

 selected dihedral angles (degree)
 ---------------------------------
C3-C2-N1-H18=358.58           C3-C2-N1-H19=181.04           C5-C2-N1-H18=178.61           C5-C2-N1-H19=  1.08           
C4-C3-C2-N1=180.36            C4-C3-C2-C5=  0.32            H20-C3-C2-N1=  0.50           H20-C3-C2-C5=180.46           
C7-C4-C3-C2=359.88            C7-C4-C3-H20=179.74           H21-C4-C3-C2=180.81           H21-C4-C3-H20=  0.67          
C6-C5-C2-N1=179.52            C6-C5-C2-C3=359.55            H22-C5-C2-N1=359.52           H22-C5-C2-C3=179.55           
C7-C6-C5-C2=  0.37            C7-C6-C5-H22=180.36           H23-C6-C5-C2=179.21           H23-C6-C5-H22=359.20          
C6-C7-C4-C3=  0.03            C6-C7-C4-H21=179.12           S8-C7-C4-C3=177.39            S8-C7-C4-H21=356.49           
C4-C7-C6-C5=359.85            C4-C7-C6-H23=180.97           S8-C7-C6-C5=182.44            S8-C7-C6-H23=  3.57           
N9-S8-C7-C4=263.13            N9-S8-C7-C6= 80.56            O16-S8-C7-C4= 19.39           O16-S8-C7-C6=196.82           
O17-S8-C7-C4=150.65           O17-S8-C7-C6=328.07           C10-N9-S8-C7= 57.40           C10-N9-S8-O16=298.72          
C10-N9-S8-O17=174.81          H24-N9-S8-C7=277.81           H24-N9-S8-O16=159.13          H24-N9-S8-O17= 35.22          
C11-C10-N9-S8= 39.12          C11-C10-N9-H24=178.40         N14-C10-N9-S8=217.49          N14-C10-N9-H24=356.77         
           -------------------------------------------------
          |                Final Singlepoint                |
           -------------------------------------------------

          ...................................................
          :                      SETUP                      :
          :.................................................:
          :  # basis functions                  85          :
          :  # atomic orbitals                  84          :
          :  # shells                           46          :
          :  # electrons                        90          :
          :  max. iterations                   250          :
          :  Hamiltonian                  GFN2-xTB          :
          :  restarted?                      false          :
          :  GBSA solvation                   true          :
          :  PC potential                    false          :
          :  electronic temp.          300.0000000     K    :
          :  accuracy                    0.2000000          :
          :  -> integral cutoff          0.3198970E+02      :
          :  -> integral neglect         0.2000000E-08      :
          :  -> SCF convergence          0.2000000E-06 Eh   :
          :  -> wf. convergence          0.2000000E-04 e    :
          :  Broyden damping             0.4000000          :
          :  net charge                          0          :
          :  unpaired electrons                  0          :
          ...................................................

 iter      E             dE          RMSdq      gap      omega  full diag
   1    -51.8744180 -0.518744E+02  0.194E-05    3.42       0.0  T
   2    -51.8744180 -0.180478E-11  0.115E-05    3.42    1647.6  T
   3    -51.8744180 -0.660805E-12  0.785E-06    3.42    2408.9  T

   *** convergence criteria satisfied after 3 iterations ***

         #    Occupation            Energy/Eh            Energy/eV
      -------------------------------------------------------------
         1        2.0000           -0.7944735             -21.6187
       ...           ...                  ...                  ...
        39        2.0000           -0.4431389             -12.0584
        40        2.0000           -0.4365860             -11.8801
        41        2.0000           -0.4236501             -11.5281
        42        2.0000           -0.4205160             -11.4428
        43        2.0000           -0.4195907             -11.4176
        44        2.0000           -0.4101777             -11.1615
        45        2.0000           -0.3747511             -10.1975 (HOMO)
        46                         -0.2488873              -6.7726 (LUMO)
        47                         -0.2398600              -6.5269
        48                         -0.2372722              -6.4565
        49                         -0.1831725              -4.9844
        50                         -0.1280999              -3.4858
       ...                                ...                  ...
        84                          1.1700843              31.8396
      -------------------------------------------------------------
                  HL-Gap            0.1258638 Eh            3.4249 eV
             Fermi-level           -0.3118192 Eh           -8.4850 eV

 SCC (total)                   0 d,  0 h,  0 min,  0.013 sec
 SCC setup                      ...        0 min,  0.000 sec (  2.982%)
 Dispersion                     ...        0 min,  0.000 sec (  0.671%)
 classical contributions        ...        0 min,  0.000 sec (  0.297%)
 integral evaluation            ...        0 min,  0.002 sec ( 18.274%)
 iterations                     ...        0 min,  0.003 sec ( 20.181%)
 molecular gradient             ...        0 min,  0.008 sec ( 56.226%)
 printout                       ...        0 min,  0.000 sec (  1.281%)

         :::::::::::::::::::::::::::::::::::::::::::::::::::::
         ::                     SUMMARY                     ::
         :::::::::::::::::::::::::::::::::::::::::::::::::::::
         :: total energy             -51.229439002233 Eh    ::
         :: total w/o Gsasa/hb       -51.219671914872 Eh    ::
         :: gradient norm              0.000336225033 Eh/a0 ::
         :: HOMO-LUMO gap              3.424927286423 eV    ::
         ::.................................................::
         :: SCC energy               -51.873977577599 Eh    ::
         :: -> isotropic ES            0.127971876899 Eh    ::
         :: -> anisotropic ES         -0.019490438545 Eh    ::
         :: -> anisotropic XC          0.021318619746 Eh    ::
         :: -> dispersion             -0.031295902966 Eh    ::
         :: -> Gsolv                  -0.046311119408 Eh    ::
         ::    -> Gelec               -0.036544032047 Eh    ::
         ::    -> Gsasa               -0.000773348290 Eh    ::
         ::    -> Ghb                 -0.010074498770 Eh    ::
         ::    -> Gshift               0.001080759698 Eh    ::
         :: repulsion energy           0.644538575366 Eh    ::
         :: add. restraining           0.000000000000 Eh    ::
         :: total charge               0.000000000000 e     ::
         :::::::::::::::::::::::::::::::::::::::::::::::::::::

           ------------------------------------------------- 
          |                Numerical Hessian                |
           ------------------------------------------------- 
step length          :   0.00500
SCC accuracy         :   0.30000
Hessian scale factor :   1.00000
frozen atoms in %    :   0.00000    0
RMS gradient         :   0.00034
estimated CPU  time      0.04 min
estimated wall time      0.04 min

writing file <hessian>.

 projected vibrational frequencies (cm⁻¹)
eigval :       -0.00    -0.00    -0.00    -0.00     0.00     0.00
eigval :       17.39    27.50    51.54    53.90    79.65   100.54
eigval :      129.33   149.80   171.30   210.29   231.73   265.26
eigval :      297.46   327.96   341.65   350.52   377.37   386.82
eigval :      400.49   465.74   489.51   491.34   492.52   571.33
eigval :      599.70   601.85   632.51   644.24   662.21   667.05
eigval :      725.39   793.15   796.25   821.62   849.18   851.55
eigval :      903.97   914.36   962.77   966.74   986.83  1004.88
eigval :     1023.20  1027.27  1054.70  1068.83  1104.97  1116.47
eigval :     1121.13  1161.70  1176.96  1186.12  1245.30  1252.70
eigval :     1319.32  1356.99  1378.94  1422.26  1424.46  1426.53
eigval :     1428.06  1435.94  1509.57  1528.16  1561.45  1581.55
eigval :     1594.26  3028.35  3040.37  3081.14  3100.62  3104.66
eigval :     3111.19  3116.11  3219.00  3432.58  3494.84  3562.25
           -------------------------------------------------
          |                Property Printout                |
           -------------------------------------------------

    * Orbital Energies and Occupations

         #    Occupation            Energy/Eh            Energy/eV
      -------------------------------------------------------------
         1        2.0000           -0.7944736             -21.6187
       ...           ...                  ...                  ...
        33        2.0000           -0.4831073             -13.1460
        34        2.0000           -0.4795281             -13.0486
        35        2.0000           -0.4725635             -12.8591
        36        2.0000           -0.4710946             -12.8191
        37        2.0000           -0.4662901             -12.6884
        38        2.0000           -0.4621211             -12.5750
        39        2.0000           -0.4431388             -12.0584
        40        2.0000           -0.4365860             -11.8801
        41        2.0000           -0.4236501             -11.5281
        42        2.0000           -0.4205160             -11.4428
        43        2.0000           -0.4195907             -11.4176
        44        2.0000           -0.4101777             -11.1615
        45        2.0000           -0.3747511             -10.1975 (HOMO)
        46                         -0.2488873              -6.7726 (LUMO)
        47                         -0.2398600              -6.5269
        48                         -0.2372722              -6.4565
        49                         -0.1831725              -4.9844
        50                         -0.1280999              -3.4858
        51                         -0.1272046              -3.4614
        52                         -0.0823926              -2.2420
        53                         -0.0762323              -2.0744
        54                         -0.0516627              -1.4058
        55                         -0.0256915              -0.6991
        56                          0.0277526               0.7552
       ...                                ...                  ...
        84                          1.1700844              31.8396
      -------------------------------------------------------------
                  HL-Gap            0.1258638 Eh            3.4249 eV
             Fermi-level           -0.3118192 Eh           -8.4850 eV

     #   Z          covCN         q      C6AA      α(0)
     1   7 N        2.645    -0.267    26.925     7.707
     2   6 C        2.896     0.101    25.771     8.323
     3   6 C        2.926    -0.067    29.672     8.933
     4   6 C        2.959    -0.031    28.783     8.800
     5   6 C        2.925    -0.066    29.639     8.928
     6   6 C        2.969    -0.033    28.828     8.807
     7   6 C        2.973    -0.117    30.971     9.129
     8  16 S        3.803     1.155   102.322    17.025
     9   7 N        2.689    -0.366    29.439     8.058
    10   6 C        3.079     0.147    24.733     8.153
    11   6 C        2.946    -0.112    30.836     9.108
    12   6 C        3.026     0.147    24.786     8.166
    13   8 O        1.819    -0.144    16.451     5.477
    14   7 N        1.937    -0.223    26.704     7.663
    15   6 C        3.754    -0.152    23.504     6.913
    16   8 O        0.860    -0.642    27.184     6.990
    17   8 O        0.860    -0.653    27.461     7.026
    18   1 H        0.861     0.234     0.950     1.527
    19   1 H        0.861     0.233     0.953     1.529
    20   1 H        0.926     0.077     2.011     2.218
    21   1 H        0.926     0.051     2.310     2.377
    22   1 H        0.926     0.076     2.025     2.226
    23   1 H        0.926     0.050     2.316     2.380
    24   1 H        0.862     0.248     0.892     1.480
    25   1 H        0.927     0.056     2.245     2.343
    26   1 H        0.925     0.092     1.861     2.134
    27   1 H        0.925     0.108     1.715     2.048
    28   1 H        0.925     0.103     1.757     2.073

 Mol. C6AA /au·bohr⁶  :      11453.298834
 Mol. C8AA /au·bohr⁸  :     293039.974622
 Mol. α(0) /au        :        167.539153


molecular dipole:
                 x           y           z       tot (Debye)
 q only:        0.193      -0.983      -5.068
   full:        0.219      -0.744      -4.720      12.158
molecular quadrupole (traceless):
                xx          xy          yy          xz          yz          zz
 q only:       46.668     -14.620      26.377       0.747     -13.868     -73.045
  q+dip:       47.104     -13.497      17.340       1.837     -11.679     -64.444
   full:       45.554     -13.995      19.265       1.907     -12.131     -64.819

           -------------------------------------------------
          |                Geometry Summary                 |
           -------------------------------------------------

      molecular mass/u    :      253.2778190
   center of mass at/Å    :        0.7323726      -1.2493447       4.4323309
  moments of inertia/u·Å² :        0.9221892E+03   0.1476338E+04   0.1985584E+04
rotational constants/cm⁻¹ :        0.1828002E-01   0.1141854E-01   0.8490014E-02

 * 29 selected distances

     #   Z          #   Z                                           value/Å
     1   7 N        2   6 C                                       1.3448433
     2   6 C        3   6 C                                       1.4083882
     3   6 C        4   6 C                                       1.3750362
     2   6 C        5   6 C                                       1.4088552
     5   6 C        6   6 C                                       1.3744025
     4   6 C        7   6 C                                       1.3859971
     6   6 C        7   6 C                                       1.3869006
     7   6 C        8  16 S                                       1.7592792 (max)
     8  16 S        9   7 N                                       1.6880173
     9   7 N       10   6 C                                       1.3726558
    10   6 C       11   6 C                                       1.4205106
    11   6 C       12   6 C                                       1.3645464
    12   6 C       13   8 O                                       1.3461521
    10   6 C       14   7 N                                       1.3153417
    13   8 O       14   7 N                                       1.3660405
    12   6 C       15   6 C                                       1.4792904
     8  16 S       16   8 O                                       1.4455510
     8  16 S       17   8 O                                       1.4465666
     1   7 N       18   1 H                                       1.0036395
     1   7 N       19   1 H                                       1.0034657 (min)
     3   6 C       20   1 H                                       1.0778560
     4   6 C       21   1 H                                       1.0775455
     5   6 C       22   1 H                                       1.0779590
     6   6 C       23   1 H                                       1.0780371
     9   7 N       24   1 H                                       1.0096345
    11   6 C       25   1 H                                       1.0675514
    15   6 C       26   1 H                                       1.0840282
    15   6 C       27   1 H                                       1.0876122
    15   6 C       28   1 H                                       1.0876324

 * 9 distinct bonds (by element types)

   Z      Z             #   av. dist./Å        max./Å        min./Å
   1 H    6 C           8     1.0797777     1.0876324     1.0675514
   6 C    6 C           9     1.4004364     1.4792904     1.3645464
   1 H    7 N           3     1.0055799     1.0096345     1.0034657
   6 C    7 N           3     1.3442803     1.3726558     1.3153417
   6 C    8 O           1     1.3461521     1.3461521     1.3461521
   7 N    8 O           1     1.3660405     1.3660405     1.3660405
   6 C   16 S           1     1.7592792     1.7592792     1.7592792
   7 N   16 S           1     1.6880173     1.6880173     1.6880173
   8 O   16 S           2     1.4460588     1.4465666     1.4455510

           -------------------------------------------------
          |               Frequency Printout                |
           -------------------------------------------------
 projected vibrational frequencies (cm⁻¹)
eigval :       -0.00    -0.00    -0.00    -0.00     0.00     0.00
eigval :       17.39    27.50    51.54    53.90    79.65   100.54
eigval :      129.33   149.80   171.30   210.29   231.73   265.26
eigval :      297.46   327.96   341.65   350.52   377.37   386.82
eigval :      400.49   465.74   489.51   491.34   492.52   571.33
eigval :      599.70   601.85   632.51   644.24   662.21   667.05
eigval :      725.39   793.15   796.25   821.62   849.18   851.55
eigval :      903.97   914.36   962.77   966.74   986.83  1004.88
eigval :     1023.20  1027.27  1054.70  1068.83  1104.97  1116.47
eigval :     1121.13  1161.70  1176.96  1186.12  1245.30  1252.70
eigval :     1319.32  1356.99  1378.94  1422.26  1424.46  1426.53
eigval :     1428.06  1435.94  1509.57  1528.16  1561.45  1581.55
eigval :     1594.26  3028.35  3040.37  3081.14  3100.62  3104.66
eigval :     3111.19  3116.11  3219.00  3432.58  3494.84  3562.25
 reduced masses (amu)
   1: 12.92   2: 13.42   3: 13.31   4: 13.86   5: 16.57   6: 16.31   7: 12.14   8: 11.60
   9:  4.39  10:  8.00  11: 12.46  12: 13.13  13: 13.46  14: 11.73  15:  4.71  16: 10.88
  17: 13.48  18: 14.56  19: 14.35  20: 12.39  21: 16.00  22: 12.06  23:  8.54  24: 12.31
  25: 11.10  26: 12.97  27: 16.20  28:  2.37  29: 15.22  30: 10.22  31: 12.24  32: 11.29
  33: 10.61  34: 15.20  35: 11.11  36: 11.31  37: 13.38  38: 12.82  39:  5.15  40:  3.36
  41:  3.32  42: 11.47  43:  2.66  44:  3.79  45:  8.48  46:  4.38  47:  9.81  48:  8.62
  49:  4.65  50:  8.81  51: 14.33  52: 14.64  53:  6.65  54: 10.28  55:  2.70  56: 12.20
  57:  4.31  58: 17.30  59: 11.08  60:  3.37  61:  7.31  62: 11.26  63:  3.37  64: 11.05
  65:  4.72  66: 10.27  67:  1.58  68:  2.30  69: 10.89  70: 12.31  71: 11.70  72: 11.53
  73: 11.64  74:  1.95  75:  1.44  76:  1.78  77:  1.78  78:  1.79  79:  1.88  80:  1.88
  81:  1.92  82:  1.85  83:  1.43  84:  2.21
 IR intensities (km·mol⁻¹)
   1:  3.20   2:  0.47   3:  3.03   4:  0.59   5:  1.11   6:  0.96   7:  1.92   8:  2.86
   9:  2.86  10:  0.76  11:  2.84  12:  9.13  13:  3.14  14: 45.00  15:218.14  16: 27.41
  17: 14.69  18: 17.40  19:  1.22  20:  8.17  21: 15.31  22:  0.74  23:  0.18  24:  7.44
  25:  2.87  26: 39.89  27:213.94  28:  6.00  29:141.20  30:298.05  31:  3.92  32:  1.69
  33: 18.03  34:192.44  35: 28.72  36: 66.15  37:124.13  38:161.21  39: 37.94  40: 39.61
  41:  0.42  42: 29.93  43:  0.05  44:  0.24  45: 55.95  46:  6.64  47: 12.38  48: 14.95
  49: 11.64  50: 18.49  51:419.62  52:152.04  53: 38.86  54:356.26  55: 25.09  56:191.97
  57: 56.73  58:645.56  59: 89.89  60:  0.75  61:169.43  62: 10.12  63: 12.02  64:318.75
  65:108.44  66:  9.27  67: 11.28  68: 25.11  69:308.46  70:203.79  71: 22.29  72:669.05
  73:296.53  74:  1.74  75:  4.81  76:  6.27  77: 12.71  78: 20.90  79: 58.45  80: 27.34
  81:  5.67  82: 79.88  83:220.69  84: 67.12
 Raman intensities (Ä⁴*amu⁻¹)
   1:  0.00   2:  0.00   3:  0.00   4:  0.00   5:  0.00   6:  0.00   7:  0.00   8:  0.00
   9:  0.00  10:  0.00  11:  0.00  12:  0.00  13:  0.00  14:  0.00  15:  0.00  16:  0.00
  17:  0.00  18:  0.00  19:  0.00  20:  0.00  21:  0.00  22:  0.00  23:  0.00  24:  0.00
  25:  0.00  26:  0.00  27:  0.00  28:  0.00  29:  0.00  30:  0.00  31:  0.00  32:  0.00
  33:  0.00  34:  0.00  35:  0.00  36:  0.00  37:  0.00  38:  0.00  39:  0.00  40:  0.00
  41:  0.00  42:  0.00  43:  0.00  44:  0.00  45:  0.00  46:  0.00  47:  0.00  48:  0.00
  49:  0.00  50:  0.00  51:  0.00  52:  0.00  53:  0.00  54:  0.00  55:  0.00  56:  0.00
  57:  0.00  58:  0.00  59:  0.00  60:  0.00  61:  0.00  62:  0.00  63:  0.00  64:  0.00
  65:  0.00  66:  0.00  67:  0.00  68:  0.00  69:  0.00  70:  0.00  71:  0.00  72:  0.00
  73:  0.00  74:  0.00  75:  0.00  76:  0.00  77:  0.00  78:  0.00  79:  0.00  80:  0.00
  81:  0.00  82:  0.00  83:  0.00  84:  0.00
 output can be read by thermo (or use thermo option).
 writing <g98.out> molden fake output.
 recommended (thermochemical) frequency scaling factor: 1.0
           -------------------------------------------------
          |             Thermodynamic Functions             |
           -------------------------------------------------

Refinement of some symmetry elements was terminated before convergence was reached.
Some symmetry elements may remain unidentified.
Molecule has no symmetry elements
It seems to be the C1 point group
c1  symmetry found (for desy threshold:  0.10E+00) used in thermo

          ...................................................
          :                      SETUP                      :
          :.................................................:
          :  # frequencies                          78      :
          :  # imaginary freq.                       0      :
          :  linear?                             false      :
          :  only rotor calc.                    false      :
          :  symmetry                               c1      :
          :  rotational number                       1      :
          :  scaling factor                  1.0000000      :
          :  rotor cutoff                   50.0000000 cm⁻¹ :
          :  imag. cutoff                  -20.0000000 cm⁻¹ :
          :.................................................:

    mode    ω/cm⁻¹     T·S(HO)/kcal·mol⁻¹    T·S(FR)/kcal·mol⁻¹   T·S(vib)
   ------------------------------------------------------------------------
       1     17.39    -2.06083 (  1.44%)    -1.36925 ( 98.56%)    -1.37922
       2     27.50    -1.78949 (  8.38%)    -1.23352 ( 91.62%)    -1.28014
       3     51.54    -1.41843 ( 53.03%)    -1.04750 ( 46.97%)    -1.24420
       4     53.90    -1.39206 ( 57.45%)    -1.03425 ( 42.55%)    -1.23981
       5     79.65    -1.16264 ( 86.56%)    -0.91858 ( 13.44%)    -1.12983
       6    100.54    -1.02679 ( 94.24%)    -0.84959 (  5.76%)    -1.01657
       7    129.33    -0.88133 ( 97.81%)    -0.77499 (  2.19%)    -0.87900
       8    149.80    -0.79748 ( 98.77%)    -0.73147 (  1.23%)    -0.79667
       9    171.30    -0.72186 ( 99.28%)    -0.69173 (  0.72%)    -0.72164
      10    210.29    -0.60857 ( 99.68%)    -0.63100 (  0.32%)    -0.60864
      11    231.73    -0.55620 ( 99.78%)    -0.60223 (  0.22%)    -0.55630
      12    265.26    -0.48506 ( 99.87%)    -0.56220 (  0.13%)    -0.48516
      13    297.46    -0.42670 ( 99.92%)    -0.52826 (  0.08%)    -0.42678
   ------------------------------------------------------------------------

   temp. (K)  partition function   enthalpy   heat capacity  entropy
                                   cal/mol     cal/K/mol   cal/K/mol   J/K/mol
 298.15  VIB  0.444E+07             8769.142     53.589     54.586
         ROT  0.397E+07              888.752      2.981     33.177
         INT  0.176E+14             9657.894     56.570     87.762
         TR   0.390E+28             1481.254      4.968     42.469
         TOT                       11139.1480    61.5383   130.2312   544.8872

       T/K    H(0)-H(T)+PV         H(T)/Eh          T*S/Eh         G(T)/Eh
   ------------------------------------------------------------------------
    298.15    0.177514E-01    0.219741E+00    0.618770E-01    0.157864E+00
   ------------------------------------------------------------------------

         :::::::::::::::::::::::::::::::::::::::::::::::::::::
         ::                  THERMODYNAMIC                  ::
         :::::::::::::::::::::::::::::::::::::::::::::::::::::
         :: total free energy         -51.071575066130 Eh   ::
         ::.................................................::
         :: total energy              -51.229438999223 Eh   ::
         :: zero point energy           0.201989600609 Eh   ::
         :: G(RRHO) w/o ZPVE           -0.044125667516 Eh   ::
         :: G(RRHO) contrib.            0.157863933093 Eh   ::
         :::::::::::::::::::::::::::::::::::::::::::::::::::::

optimized geometry written to: xtbopt.xyz


           -------------------------------------------------
          | TOTAL ENERGY              -51.229438999223 Eh   |
          | TOTAL ENTHALPY            -51.009698036282 Eh   |
          | TOTAL FREE ENERGY         -51.071575066130 Eh   |
          | GRADIENT NORM               0.000336226453 Eh/α |
          | HOMO-LUMO GAP               3.424927185617 eV   |
           -------------------------------------------------

------------------------------------------------------------------------
 * finished run on 2026/07/25 at 12:24:21.969     
------------------------------------------------------------------------
 total:
 * wall-time:     0 d,  0 h,  0 min,  2.965 sec
 *  cpu-time:     0 d,  0 h,  0 min,  2.939 sec
 * ratio c/w:     0.991 speedup
 SCF:
 * wall-time:     0 d,  0 h,  0 min,  0.022 sec
 *  cpu-time:     0 d,  0 h,  0 min,  0.022 sec
 * ratio c/w:     0.992 speedup
 ANC optimizer:
 * wall-time:     0 d,  0 h,  0 min,  0.418 sec
 *  cpu-time:     0 d,  0 h,  0 min,  0.413 sec
 * ratio c/w:     0.989 speedup
 analytical hessian:
 * wall-time:     0 d,  0 h,  0 min,  2.517 sec
 *  cpu-time:     0 d,  0 h,  0 min,  2.495 sec
 * ratio c/w:     0.991 speedup

normal termination of xtb
Note: The following floating-point exceptions are signalling: IEEE_DIVIDE_BY_ZERO IEEE_UNDERFLOW_FLAG
