      -----------------------------------------------------------      
     |                   =====================                   |     
     |                           x T B                           |     
     |                   =====================                   |     
     |                         S. Grimme                         |     
     |          Mulliken Center for Theoretical Chemistry        |     
     |                    University of Bonn                     |     
      -----------------------------------------------------------      

   * xtb version 6.7.1 (edcfbbe) compiled by 'runner@sat12-gn217-0cbadaec-b866-44ae-a866-732403219ae3-6E01A8DFFD18.local' on 2026-06-10

   xtb is free software: you can redistribute it and/or modify it under
   the terms of the GNU Lesser General Public License as published by
   the Free Software Foundation, either version 3 of the License, or
   (at your option) any later version.
   
   xtb is distributed in the hope that it will be useful,
   but WITHOUT ANY WARRANTY; without even the implied warranty of
   MERCHANTABILITY or FITNESS FOR A PARTICULAR PURPOSE.  See the
   GNU Lesser General Public License for more details.
   
   Cite this work as:
   * C. Bannwarth, E. Caldeweyher, S. Ehlert, A. Hansen, P. Pracht,
     J. Seibert, S. Spicher, S. Grimme, WIREs Comput. Mol. Sci., 2020, 11,
     e01493. DOI: 10.1002/wcms.1493
   
   for GFN2-xTB:
   * C. Bannwarth, S. Ehlert and S. Grimme., J. Chem. Theory Comput., 2019,
     15, 1652-1671. DOI: 10.1021/acs.jctc.8b01176
   for GFN1-xTB:
   * S. Grimme, C. Bannwarth, P. Shushkov, J. Chem. Theory Comput., 2017,
     13, 1989-2009. DOI: 10.1021/acs.jctc.7b00118
   for GFN0-xTB:
   * P. Pracht, E. Caldeweyher, S. Ehlert, S. Grimme, ChemRxiv, 2019, preprint.
     DOI: 10.26434/chemrxiv.8326202.v1
   for GFN-FF:
   * S. Spicher and S. Grimme, Angew. Chem. Int. Ed., 2020, 59, 15665-15673.
     DOI: 10.1002/anie.202004239
   
   for ALPB and GBSA implicit solvation:
   * S. Ehlert, M. Stahn, S. Spicher, S. Grimme, J. Chem. Theory Comput.,
     2021, 17, 4250-4261. DOI: 10.1021/acs.jctc.1c00471
   
   for ddCOSMO and CPCM-X implicit solvation:
   * M. Stahn, S. Ehlert, S. Grimme, J. Phys. Chem. A,
     2023, XX, XXXX-XXXX. DOI: 10.1021/acs.jpca.3c04382
   
   for DFT-D4:
   * E. Caldeweyher, C. Bannwarth and S. Grimme, J. Chem. Phys., 2017,
     147, 034112. DOI: 10.1063/1.4993215
   * E. Caldeweyher, S. Ehlert, A. Hansen, H. Neugebauer, S. Spicher,
     C. Bannwarth and S. Grimme, J. Chem. Phys., 2019, 150, 154122.
     DOI: 10.1063/1.5090222
   * E. Caldeweyher, J.-M. Mewes, S. Ehlert and S. Grimme, Phys. Chem. Chem. Phys.
     2020, 22, 8499-8512. DOI: 10.1039/D0CP00502A
   
   for sTDA-xTB:
   * S. Grimme and C. Bannwarth, J. Chem. Phys., 2016, 145, 054103.
     DOI: 10.1063/1.4959605
   
   in the mass-spec context:
   * V. Asgeirsson, C. Bauer and S. Grimme, Chem. Sci., 2017, 8, 4879.
     DOI: 10.1039/c7sc00601b
   * J. Koopman and S. Grimme, ACS Omega 2019, 4, 12, 15120-15133.
     DOI: 10.1021/acsomega.9b02011
   
   for metadynamics refer to:
   * S. Grimme, J. Chem. Theory Comput., 2019, 155, 2847-2862
     DOI: 10.1021/acs.jctc.9b00143
   
   for SPH calculations refer to:
   * S. Spicher and S. Grimme, J. Chem. Theory Comput., 2021, 17, 1701-1714
     DOI: 10.1021/acs.jctc.0c01306
   
   for ONIOM refer to:
   * C. Plett, A. Katbashev, S. Ehlert, S. Grimme, M. Bursch,
     Phys. Chem. Chem. Phys., 2023, 25, 17860-17868. DOI: 10.1039/D3CP02178E
   
   for DIPRO refer to:
   * J. Kohn, N. Gildemeister, S. Grimme, D. Fazzi, A. Hansen,
     J. Chem. Phys., 2023, just accepted.
   
   for PTB refer to:
   * S. Grimme, M. Mueller, A. Hansen, J. Chem. Phys., 2023, 158, 124111.
     DOI: 10.1063/5.0137838
   
   with help from (in alphabetical order)
   P. Atkinson, C. Bannwarth, F. Bohle, G. Brandenburg, E. Caldeweyher
   M. Checinski, S. Dohm, S. Ehlert, S. Ehrlich, I. Gerasimov, C. Hölzer
   A. Katbashev, J. Kohn, J. Koopman, C. Lavigne, S. Lehtola, F. März, M. Müller,
   F. Musil, H. Neugebauer, J. Pisarek, C. Plett, P. Pracht, F. Pultar,
   J. Seibert, P. Shushkov, S. Spicher, M. Stahn, M. Steiner, T. Strunk,
   J. Stückrath, T. Rose, and J. Unsleber
   
 * started run on 2026/07/25 at 12:24:10.015     
   ID    Z sym.   atoms
    1    7 N      1, 9, 14
    2    6 C      2-7, 10-12, 15
    3   16 S      8
    4    8 O      13, 16, 17
    5    1 H      18-28

           -------------------------------------------------
          |                Calculation Setup                |
           -------------------------------------------------

          program call               : /opt/homebrew/Caskroom/miniforge/base/envs/qchem/bin/xtb source.xyz --chrg 0 --uhf 0 --gfn 2 --alpb water --acc 0.2 --ohess tight --parallel 1 --json --ceasefiles -I control.inp
          coordinate file            : source.xyz
          omp threads                :                     1


           -------------------------------------------------
          |                 G F N 2 - x T B                 |
           -------------------------------------------------

        Reference                      10.1021/acs.jctc.8b01176
      * Hamiltonian:
        H0-scaling (s, p, d)           1.850000    2.230000    2.230000
        zeta-weighting                 0.500000
      * Dispersion:
        s8                             2.700000
        a1                             0.520000
        a2                             5.000000
        s9                             5.000000
      * Repulsion:
        kExp                           1.500000    1.000000
        rExp                           1.000000
      * Coulomb:
        alpha                          2.000000
        third order                    shell-resolved
        anisotropic                    true
        a3                             3.000000
        a5                             4.000000
        cn-shift                       1.200000
        cn-exp                         4.000000
        max-rad                        5.000000

      * Solvation model:               ALPB
        Solvent                        water
        Parameter file                 internal GFN2-xTB/ALPB
        Dielectric constant                8.0200E+01
        Reference state                gsolv [1 M gas/solution]
        Free energy shift                  1.0808E-03 Eh       6.7819E-01 kcal/mol
        Temperature                        2.9815E+02 K
        Density                            1.0000E+00 kg/L
        Solvent mass                       1.8000E+01 g/mol
        Interaction kernel             P16
        Born radius scaling (c1)           1.4744E+00
        Born radii integrator          GBOBC
        Born offset                        0.0000E+00 a0       0.0000E+00 AA
        H-bond correction              true
        Ion screening                  false
        Surface tension                    1.0000E-05 Eh       1.5569E+01 dyn/cm
        Grid points                               230 per atom

          ...................................................
          :                      SETUP                      :
          :.................................................:
          :  # basis functions                  85          :
          :  # atomic orbitals                  84          :
          :  # shells                           46          :
          :  # electrons                        90          :
          :  max. iterations                   250          :
          :  Hamiltonian                  GFN2-xTB          :
          :  restarted?                      false          :
          :  GBSA solvation                   true          :
          :  PC potential                    false          :
          :  electronic temp.          300.0000000     K    :
          :  accuracy                    0.2000000          :
          :  -> integral cutoff          0.3198970E+02      :
          :  -> integral neglect         0.2000000E-08      :
          :  -> SCF convergence          0.2000000E-06 Eh   :
          :  -> wf. convergence          0.2000000E-04 e    :
          :  Broyden damping             0.4000000          :
          :  net charge                          0          :
          :  unpaired electrons                  0          :
          ...................................................

 iter      E             dE          RMSdq      gap      omega  full diag
   1    -51.7749980 -0.517750E+02  0.544E+00    2.98       0.0  T
   2    -51.8412673 -0.662693E-01  0.330E+00    3.33       1.0  T
   3    -51.8385007  0.276659E-02  0.151E+00    3.46       1.0  T
   4    -51.8534297 -0.149290E-01  0.472E-01    3.34       1.0  T
   5    -51.8556392 -0.220957E-02  0.211E-01    3.38       1.0  T
   6    -51.8557655 -0.126263E-03  0.114E-01    3.36       1.0  T
   7    -51.8558136 -0.480795E-04  0.560E-02    3.36       1.0  T
   8    -51.8558313 -0.176699E-04  0.245E-02    3.37       1.0  T
   9    -51.8558337 -0.247970E-05  0.723E-03    3.37       2.6  T
  10    -51.8558340 -0.286521E-06  0.379E-03    3.37       5.0  T
  11    -51.8558341 -0.115907E-06  0.156E-03    3.37      12.1  T
  12    -51.8558341 -0.446546E-08  0.382E-04    3.37      49.5  T
  13    -51.8558341 -0.502403E-09  0.142E-04    3.37     132.9  T
  14    -51.8558341 -0.466329E-10  0.659E-05    3.37     286.6  T

   *** convergence criteria satisfied after 14 iterations ***

         #    Occupation            Energy/Eh            Energy/eV
      -------------------------------------------------------------
         1        2.0000           -0.7951055             -21.6359
       ...           ...                  ...                  ...
        39        2.0000           -0.4433661             -12.0646
        40        2.0000           -0.4371440             -11.8953
        41        2.0000           -0.4251547             -11.5690
        42        2.0000           -0.4237640             -11.5312
        43        2.0000           -0.4213487             -11.4655
        44        2.0000           -0.4135731             -11.2539
        45        2.0000           -0.3774629             -10.2713 (HOMO)
        46                         -0.2537530              -6.9050 (LUMO)
        47                         -0.2450899              -6.6692
        48                         -0.2392754              -6.5110
        49                         -0.1828767              -4.9763
        50                         -0.1309829              -3.5642
       ...                                ...                  ...
        84                          1.1690533              31.8116
      -------------------------------------------------------------
                  HL-Gap            0.1237099 Eh            3.3663 eV
             Fermi-level           -0.3156079 Eh           -8.5881 eV

 SCC (total)                   0 d,  0 h,  0 min,  0.022 sec
 SCC setup                      ...        0 min,  0.000 sec (  2.121%)
 Dispersion                     ...        0 min,  0.000 sec (  0.533%)
 classical contributions        ...        0 min,  0.000 sec (  0.208%)
 integral evaluation            ...        0 min,  0.003 sec ( 11.396%)
 iterations                     ...        0 min,  0.011 sec ( 50.883%)
 molecular gradient             ...        0 min,  0.008 sec ( 34.359%)
 printout                       ...        0 min,  0.000 sec (  0.479%)

         :::::::::::::::::::::::::::::::::::::::::::::::::::::
         ::                     SUMMARY                     ::
         :::::::::::::::::::::::::::::::::::::::::::::::::::::
         :: total energy             -51.225612787190 Eh    ::
         :: total w/o Gsasa/hb       -51.216050157707 Eh    ::
         :: gradient norm              0.050197657622 Eh/a0 ::
         :: HOMO-LUMO gap              3.366319004196 eV    ::
         ::.................................................::
         :: SCC energy               -51.855383288928 Eh    ::
         :: -> isotropic ES            0.125503182374 Eh    ::
         :: -> anisotropic ES         -0.018327437762 Eh    ::
         :: -> anisotropic XC          0.021806935329 Eh    ::
         :: -> dispersion             -0.030993608275 Eh    ::
         :: -> Gsolv                  -0.043808907807 Eh    ::
         ::    -> Gelec               -0.034246278324 Eh    ::
         ::    -> Gsasa               -0.000884308745 Eh    ::
         ::    -> Ghb                 -0.009759080435 Eh    ::
         ::    -> Gshift               0.001080759698 Eh    ::
         :: repulsion energy           0.629770501738 Eh    ::
         :: add. restraining           0.000000000000 Eh    ::
         :: total charge              -0.000000000000 e     ::
         :::::::::::::::::::::::::::::::::::::::::::::::::::::

      ----------------------------------------------------------- 
     |                   =====================                   |
     |                        A N C O P T                        |
     |                   =====================                   |
     |               Approximate Normal Coordinate               |
     |                Rational Function Optimizer                |
      ----------------------------------------------------------- 

Optimization log is written to '/dev/null'
      ----------------------------------------------------------- 
     |                   =====================                   |
     |                        A N C O P T                        |
     |                   =====================                   |
     |               Approximate Normal Coordinate               |
     |                Rational Function Optimizer                |
      ----------------------------------------------------------- 

          ...................................................
          :                      SETUP                      :
          :.................................................:
          :   optimization level             tight          :
          :   max. optcycles                   200          :
          :   ANC micro-cycles                  20          :
          :   degrees of freedom                78          :
          :.................................................:
          :   RF solver                   davidson          :
          :   write xtbopt.log                true          :
          :   linear?                        false          :
          :   energy convergence         0.1000000E-05 Eh   :
          :   grad. convergence          0.8000000E-03 Eh/α :
          :   maxmium RF displ.          1.0000000          :
          :   Hlow (freq-cutoff)         0.1000000E-01      :
          :   Hmax (freq-cutoff)         5.0000000          :
          :   S6 in model hess.         20.0000000          :
          ...................................................

generating ANC from exact Hessian ...
Using Lindh-Hessian (1995)
 Shifting diagonal of input Hessian by    9.5774176167094157E-003
 Lowest  eigenvalues of input Hessian
    0.000000    0.000000    0.000000    0.000000    0.000000    0.000000
    0.010000    0.011244    0.011521    0.012843    0.015560    0.016877
    0.021209    0.023907    0.024315    0.025877    0.028503    0.032390
 Highest eigenvalues
    1.989301    1.991399    2.102077    2.138197    2.611910    3.524800


........................................................................
.............................. CYCLE    1 ..............................
........................................................................

 iter      E             dE          RMSdq      gap      omega  full diag
   1    -51.8558341 -0.518558E+02  0.177E-05    3.37       0.0  T
   2    -51.8558341 -0.129319E-11  0.111E-05    3.37    1705.0  T
   3    -51.8558341 -0.127898E-12  0.717E-06    3.37    2636.4  T
     SCC iter.                  ...        0 min,  0.003 sec
     gradient                   ...        0 min,  0.007 sec
 * total energy  :   -51.2256128 Eh     change       -0.2884804E-10 Eh
   gradient norm :     0.0501975 Eh/α   predicted     0.0000000E+00 (-100.00%)
   displ. norm   :     0.1235530 α      lambda       -0.3126035E-02
   maximum displ.:     0.0393387 α      in ANC's #6, #14, #35, ...

........................................................................
.............................. CYCLE    2 ..............................
........................................................................

 iter      E             dE          RMSdq      gap      omega  full diag
   1    -51.8688688 -0.518689E+02  0.128E-01    3.41       0.0  T
   2    -51.8689272 -0.583760E-04  0.710E-02    3.43       1.0  T
   3    -51.8689285 -0.130294E-05  0.326E-02    3.43       1.0  T
   4    -51.8689335 -0.508593E-05  0.925E-03    3.43       2.0  T
   5    -51.8689343 -0.747769E-06  0.285E-03    3.43       6.6  T
   6    -51.8689344 -0.759301E-07  0.139E-03    3.43      13.6  T
   7    -51.8689344 -0.839039E-08  0.602E-04    3.43      31.4  T
   8    -51.8689344 -0.241761E-08  0.292E-04    3.43      64.8  T
   9    -51.8689344 -0.306805E-09  0.999E-05    3.43     189.2  T
  10    -51.8689344 -0.462705E-10  0.510E-05    3.43     370.3  T
     SCC iter.                  ...        0 min,  0.008 sec
     gradient                   ...        0 min,  0.008 sec
 * total energy  :   -51.2278842 Eh     change       -0.2271462E-02 Eh
   gradient norm :     0.0269826 Eh/α   predicted    -0.1586922E-02 ( -30.14%)
   displ. norm   :     0.1435888 α      lambda       -0.1743617E-02
   maximum displ.:     0.0711661 α      in ANC's #6, #14, #20, ...

........................................................................
.............................. CYCLE    3 ..............................
........................................................................

 iter      E             dE          RMSdq      gap      omega  full diag
   1    -51.8756625 -0.518757E+02  0.134E-01    3.47       0.0  T
   2    -51.8757463 -0.837971E-04  0.704E-02    3.49       1.0  T
   3    -51.8757530 -0.672778E-05  0.348E-02    3.48       1.0  T
   4    -51.8757574 -0.431225E-05  0.110E-02    3.48       1.7  T
   5    -51.8757579 -0.521772E-06  0.411E-03    3.48       4.6  T
   6    -51.8757580 -0.118399E-06  0.180E-03    3.48      10.5  T
   7    -51.8757580 -0.144443E-07  0.876E-04    3.48      21.6  T
   8    -51.8757580 -0.484258E-08  0.397E-04    3.48      47.6  T
   9    -51.8757580 -0.606846E-09  0.122E-04    3.48     154.3  T
  10    -51.8757580 -0.547047E-10  0.644E-05    3.48     293.6  T
     SCC iter.                  ...        0 min,  0.008 sec
     gradient                   ...        0 min,  0.007 sec
 * total energy  :   -51.2288851 Eh     change       -0.1000807E-02 Eh
   gradient norm :     0.0102322 Eh/α   predicted    -0.8898369E-03 ( -11.09%)
   displ. norm   :     0.0785488 α      lambda       -0.2589247E-03
   maximum displ.:     0.0451187 α      in ANC's #6, #2, #7, ...

........................................................................
.............................. CYCLE    4 ..............................
........................................................................

 iter      E             dE          RMSdq      gap      omega  full diag
   1    -51.8742924 -0.518743E+02  0.494E-02    3.48       0.0  T
   2    -51.8742979 -0.548330E-05  0.250E-02    3.49       1.0  T
   3    -51.8742982 -0.264269E-06  0.109E-02    3.48       1.7  T
   4    -51.8742990 -0.857677E-06  0.405E-03    3.49       4.7  T
   5    -51.8742991 -0.229240E-07  0.160E-03    3.49      11.8  T
   6    -51.8742991 -0.206383E-07  0.492E-04    3.49      38.4  T
   7    -51.8742991 -0.122644E-08  0.232E-04    3.49      81.3  T
   8    -51.8742991 -0.262823E-09  0.896E-05    3.49     211.0  T
   9    -51.8742991 -0.234550E-10  0.338E-05    3.49     558.4  T
     SCC iter.                  ...        0 min,  0.007 sec
     gradient                   ...        0 min,  0.008 sec
 * total energy  :   -51.2290852 Eh     change       -0.2001265E-03 Eh
   gradient norm :     0.0085079 Eh/α   predicted    -0.1302650E-03 ( -34.91%)
   displ. norm   :     0.1400167 α      lambda       -0.3027752E-03
   maximum displ.:     0.0840475 α      in ANC's #6, #2, #3, ...

........................................................................
.............................. CYCLE    5 ..............................
........................................................................

 iter      E             dE          RMSdq      gap      omega  full diag
   1    -51.8716867 -0.518717E+02  0.749E-02    3.47       0.0  T
   2    -51.8716924 -0.566038E-05  0.372E-02    3.47       1.0  T
   3    -51.8716920  0.324255E-06  0.138E-02    3.47       1.4  T
   4    -51.8716936 -0.156418E-05  0.602E-03    3.47       3.1  T
   5    -51.8716937 -0.778800E-07  0.177E-03    3.47      10.7  T
   6    -51.8716937 -0.267001E-07  0.611E-04    3.47      30.9  T
   7    -51.8716937 -0.184234E-08  0.230E-04    3.47      82.1  T
   8    -51.8716937 -0.158010E-09  0.940E-05    3.47     201.1  T
   9    -51.8716937 -0.243077E-10  0.328E-05    3.47     577.0  T
     SCC iter.                  ...        0 min,  0.007 sec
     gradient                   ...        0 min,  0.008 sec
 * total energy  :   -51.2292763 Eh     change       -0.1910693E-03 Eh
   gradient norm :     0.0061121 Eh/α   predicted    -0.1543605E-03 ( -19.21%)
   displ. norm   :     0.0784483 α      lambda       -0.8465820E-04
   maximum displ.:     0.0465474 α      in ANC's #6, #2, #1, ...

........................................................................
.............................. CYCLE    6 ..............................
........................................................................

 iter      E             dE          RMSdq      gap      omega  full diag
   1    -51.8717883 -0.518718E+02  0.351E-02    3.46       0.0  T
   2    -51.8717903 -0.200741E-05  0.177E-02    3.46       1.1  T
   3    -51.8717902  0.429968E-07  0.770E-03    3.47       2.5  T
   4    -51.8717906 -0.411031E-06  0.279E-03    3.47       6.8  T
   5    -51.8717907 -0.300251E-07  0.102E-03    3.47      18.5  T
   6    -51.8717907 -0.576851E-08  0.351E-04    3.47      53.8  T
   7    -51.8717907 -0.718416E-09  0.145E-04    3.47     130.5  T
   8    -51.8717907 -0.409273E-10  0.623E-05    3.47     303.4  T
     SCC iter.                  ...        0 min,  0.007 sec
     gradient                   ...        0 min,  0.008 sec
 * total energy  :   -51.2293370 Eh     change       -0.6073012E-04 Eh
   gradient norm :     0.0040535 Eh/α   predicted    -0.4259246E-04 ( -29.87%)
   displ. norm   :     0.0745342 α      lambda       -0.5811641E-04
   maximum displ.:     0.0403645 α      in ANC's #6, #1, #2, ...

........................................................................
.............................. CYCLE    7 ..............................
........................................................................

 iter      E             dE          RMSdq      gap      omega  full diag
   1    -51.8731127 -0.518731E+02  0.291E-02    3.46       0.0  T
   2    -51.8731156 -0.282398E-05  0.159E-02    3.46       1.2  T
   3    -51.8731159 -0.302193E-06  0.866E-03    3.46       2.2  T
   4    -51.8731162 -0.342416E-06  0.208E-03    3.46       9.1  T
   5    -51.8731162 -0.250921E-07  0.998E-04    3.46      18.9  T
   6    -51.8731162 -0.599794E-08  0.370E-04    3.46      51.1  T
   7    -51.8731162 -0.571376E-09  0.154E-04    3.46     122.8  T
   8    -51.8731162 -0.518767E-10  0.653E-05    3.46     289.2  T
     SCC iter.                  ...        0 min,  0.006 sec
     gradient                   ...        0 min,  0.007 sec
 * total energy  :   -51.2293754 Eh     change       -0.3844731E-04 Eh
   gradient norm :     0.0025174 Eh/α   predicted    -0.2923431E-04 ( -23.96%)
   displ. norm   :     0.0476224 α      lambda       -0.2162387E-04
   maximum displ.:     0.0314344 α      in ANC's #1, #2, #6, ...

........................................................................
.............................. CYCLE    8 ..............................
........................................................................

 iter      E             dE          RMSdq      gap      omega  full diag
   1    -51.8741561 -0.518742E+02  0.165E-02    3.46       0.0  T
   2    -51.8741571 -0.968979E-06  0.942E-03    3.46       2.0  T
   3    -51.8741572 -0.146410E-06  0.531E-03    3.46       3.6  T
   4    -51.8741573 -0.124215E-06  0.102E-03    3.46      18.6  T
   5    -51.8741573 -0.931504E-08  0.497E-04    3.46      38.0  T
   6    -51.8741573 -0.954955E-09  0.199E-04    3.46      94.9  T
   7    -51.8741573 -0.248619E-09  0.799E-05    3.46     236.4  T
     SCC iter.                  ...        0 min,  0.006 sec
     gradient                   ...        0 min,  0.007 sec
 * total energy  :   -51.2293912 Eh     change       -0.1577892E-04 Eh
   gradient norm :     0.0023679 Eh/α   predicted    -0.1087897E-04 ( -31.05%)
   displ. norm   :     0.0531487 α      lambda       -0.1839420E-04
   maximum displ.:     0.0394884 α      in ANC's #1, #2, #6, ...

........................................................................
.............................. CYCLE    9 ..............................
........................................................................

 iter      E             dE          RMSdq      gap      omega  full diag
   1    -51.8748796 -0.518749E+02  0.175E-02    3.46       0.0  T
   2    -51.8748803 -0.751739E-06  0.968E-03    3.46       2.0  T
   3    -51.8748804 -0.200805E-07  0.521E-03    3.46       3.6  T
   4    -51.8748806 -0.206068E-06  0.117E-03    3.46      16.2  T
   5    -51.8748806 -0.673428E-08  0.497E-04    3.46      38.1  T
   6    -51.8748806 -0.782805E-09  0.186E-04    3.46     101.5  T
   7    -51.8748806 -0.271640E-09  0.770E-05    3.46     245.3  T
     SCC iter.                  ...        0 min,  0.005 sec
     gradient                   ...        0 min,  0.007 sec
 * total energy  :   -51.2294052 Eh     change       -0.1394982E-04 Eh
   gradient norm :     0.0023530 Eh/α   predicted    -0.9224325E-05 ( -33.87%)
   displ. norm   :     0.0667202 α      lambda       -0.1890223E-04
   maximum displ.:     0.0519022 α      in ANC's #1, #2, #3, ...

........................................................................
.............................. CYCLE   10 ..............................
........................................................................

 iter      E             dE          RMSdq      gap      omega  full diag
   1    -51.8751619 -0.518752E+02  0.211E-02    3.46       0.0  T
   2    -51.8751626 -0.751070E-06  0.116E-02    3.46       1.6  T
   3    -51.8751625  0.103283E-06  0.549E-03    3.46       3.4  T
   4    -51.8751628 -0.317488E-06  0.145E-03    3.46      13.0  T
   5    -51.8751629 -0.101496E-07  0.528E-04    3.46      35.8  T
   6    -51.8751629 -0.752536E-09  0.197E-04    3.46      96.1  T
   7    -51.8751629 -0.197232E-09  0.869E-05    3.46     217.6  T
     SCC iter.                  ...        0 min,  0.005 sec
     gradient                   ...        0 min,  0.007 sec
 * total energy  :   -51.2294187 Eh     change       -0.1357008E-04 Eh
   gradient norm :     0.0022596 Eh/α   predicted    -0.9500473E-05 ( -29.99%)
   displ. norm   :     0.0541822 α      lambda       -0.1352329E-04
   maximum displ.:     0.0446726 α      in ANC's #1, #2, #4, ...

........................................................................
.............................. CYCLE   11 ..............................
........................................................................

 iter      E             dE          RMSdq      gap      omega  full diag
   1    -51.8750083 -0.518750E+02  0.167E-02    3.46       0.0  T
   2    -51.8750086 -0.340052E-06  0.928E-03    3.46       2.0  T
   3    -51.8750086  0.375101E-07  0.349E-03    3.46       5.4  T
   4    -51.8750087 -0.113706E-06  0.119E-03    3.46      15.9  T
   5    -51.8750087 -0.955110E-08  0.418E-04    3.46      45.2  T
   6    -51.8750087 -0.779963E-09  0.162E-04    3.46     116.9  T
   7    -51.8750087 -0.139174E-09  0.677E-05    3.46     279.0  T
     SCC iter.                  ...        0 min,  0.006 sec
     gradient                   ...        0 min,  0.007 sec
 * total energy  :   -51.2294289 Eh     change       -0.1017486E-04 Eh
   gradient norm :     0.0017735 Eh/α   predicted    -0.6788037E-05 ( -33.29%)
   displ. norm   :     0.0864465 α      lambda       -0.1132920E-04
   maximum displ.:     0.0701899 α      in ANC's #1, #2, #4, ...

........................................................................
.............................. CYCLE   12 ..............................
........................................................................

 iter      E             dE          RMSdq      gap      omega  full diag
   1    -51.8743682 -0.518744E+02  0.245E-02    3.45       0.0  T
   2    -51.8743687 -0.591459E-06  0.141E-02    3.45       1.3  T
   3    -51.8743687  0.882174E-07  0.509E-03    3.45       3.7  T
   4    -51.8743689 -0.244383E-06  0.134E-03    3.45      14.1  T
   5    -51.8743689 -0.101927E-07  0.561E-04    3.45      33.7  T
   6    -51.8743689 -0.124165E-08  0.213E-04    3.45      88.7  T
   7    -51.8743689 -0.341210E-09  0.866E-05    3.45     218.2  T
   8    -51.8743689 -0.178346E-10  0.291E-05    3.45     649.9  T
     SCC iter.                  ...        0 min,  0.006 sec
     gradient                   ...        0 min,  0.008 sec
 * total energy  :   -51.2294393 Eh     change       -0.1038336E-04 Eh
   gradient norm :     0.0016679 Eh/α   predicted    -0.5687210E-05 ( -45.23%)
   displ. norm   :     0.0435900 α      lambda       -0.5290001E-05
   maximum displ.:     0.0354200 α      in ANC's #1, #2, #4, ...

........................................................................
.............................. CYCLE   13 ..............................
........................................................................

 iter      E             dE          RMSdq      gap      omega  full diag
   1    -51.8744353 -0.518744E+02  0.112E-02    3.45       0.0  T
   2    -51.8744354 -0.116639E-06  0.629E-03    3.45       3.0  T
   3    -51.8744354  0.352380E-07  0.220E-03    3.45       8.6  T
   4    -51.8744354 -0.588234E-07  0.646E-04    3.45      29.3  T
   5    -51.8744354 -0.434654E-08  0.174E-04    3.45     108.3  T
   6    -51.8744354 -0.567724E-10  0.715E-05    3.45     264.4  T
     SCC iter.                  ...        0 min,  0.005 sec
     gradient                   ...        0 min,  0.008 sec
 * total energy  :   -51.2294454 Eh     change       -0.6072566E-05 Eh
   gradient norm :     0.0013093 Eh/α   predicted    -0.2649859E-05 ( -56.36%)
   displ. norm   :     0.0754719 α      lambda       -0.7571376E-05
   maximum displ.:     0.0586668 α      in ANC's #1, #2, #4, ...

........................................................................
.............................. CYCLE   14 ..............................
........................................................................

 iter      E             dE          RMSdq      gap      omega  full diag
   1    -51.8744337 -0.518744E+02  0.200E-02    3.45       0.0  T
   2    -51.8744341 -0.321153E-06  0.109E-02    3.45       1.7  T
   3    -51.8744340  0.193392E-07  0.296E-03    3.45       6.4  T
   4    -51.8744341 -0.665297E-07  0.127E-03    3.45      14.9  T
   5    -51.8744341 -0.179289E-07  0.339E-04    3.45      55.7  T
   6    -51.8744341 -0.503647E-09  0.162E-04    3.45     116.8  T
   7    -51.8744341 -0.142428E-09  0.465E-05    3.45     406.3  T
     SCC iter.                  ...        0 min,  0.005 sec
     gradient                   ...        0 min,  0.008 sec
 * total energy  :   -51.2294521 Eh     change       -0.6694808E-05 Eh
   gradient norm :     0.0013527 Eh/α   predicted    -0.3797679E-05 ( -43.27%)
   displ. norm   :     0.0522353 α      lambda       -0.4177013E-05
   maximum displ.:     0.0416864 α      in ANC's #1, #6, #2, ...

........................................................................
.............................. CYCLE   15 ..............................
........................................................................

 iter      E             dE          RMSdq      gap      omega  full diag
   1    -51.8747594 -0.518748E+02  0.121E-02    3.45       0.0  T
   2    -51.8747594 -0.494067E-07  0.696E-03    3.45       2.7  T
   3    -51.8747594  0.969309E-08  0.143E-03    3.45      13.2  T
   4    -51.8747595 -0.243119E-07  0.491E-04    3.45      38.5  T
   5    -51.8747595 -0.104456E-08  0.173E-04    3.45     109.5  T
   6    -51.8747595 -0.154280E-09  0.666E-05    3.45     283.8  T
     SCC iter.                  ...        0 min,  0.005 sec
     gradient                   ...        0 min,  0.007 sec
 * total energy  :   -51.2294564 Eh     change       -0.4351847E-05 Eh
   gradient norm :     0.0010208 Eh/α   predicted    -0.2093182E-05 ( -51.90%)
   displ. norm   :     0.0509724 α      lambda       -0.2716564E-05
   maximum displ.:     0.0414083 α      in ANC's #1, #2, #6, ...

........................................................................
.............................. CYCLE   16 ..............................
........................................................................

 iter      E             dE          RMSdq      gap      omega  full diag
   1    -51.8747654 -0.518748E+02  0.126E-02    3.45       0.0  T
   2    -51.8747655 -0.992705E-07  0.732E-03    3.45       2.6  T
   3    -51.8747654  0.603521E-07  0.236E-03    3.44       8.0  T
   4    -51.8747655 -0.924035E-07  0.503E-04    3.44      37.6  T
   5    -51.8747655 -0.101129E-08  0.214E-04    3.44      88.3  T
   6    -51.8747655 -0.136474E-09  0.827E-05    3.44     228.4  T
   7    -51.8747655 -0.414673E-10  0.353E-05    3.44     535.7  T
     SCC iter.                  ...        0 min,  0.006 sec
     gradient                   ...        0 min,  0.008 sec
 * total energy  :   -51.2294598 Eh     change       -0.3347339E-05 Eh
   gradient norm :     0.0006279 Eh/α   predicted    -0.1361190E-05 ( -59.34%)
   displ. norm   :     0.0454974 α      lambda       -0.2381819E-05
   maximum displ.:     0.0358674 α      in ANC's #1, #2, #6, ...

........................................................................
.............................. CYCLE   17 ..............................
........................................................................

 iter      E             dE          RMSdq      gap      omega  full diag
   1    -51.8747669 -0.518748E+02  0.124E-02    3.45       0.0  T
   2    -51.8747670 -0.101633E-06  0.720E-03    3.44       2.6  T
   3    -51.8747670  0.418984E-07  0.206E-03    3.44       9.2  T
   4    -51.8747670 -0.681452E-07  0.477E-04    3.44      39.6  T
   5    -51.8747670 -0.125670E-08  0.219E-04    3.44      86.3  T
   6    -51.8747670 -0.275364E-09  0.924E-05    3.44     204.5  T
   7    -51.8747670 -0.435065E-10  0.363E-05    3.44     520.2  T
     SCC iter.                  ...        0 min,  0.005 sec
     gradient                   ...        0 min,  0.007 sec
 * total energy  :   -51.2294627 Eh     change       -0.2954658E-05 Eh
   gradient norm :     0.0004912 Eh/α   predicted    -0.1196838E-05 ( -59.49%)
   displ. norm   :     0.0521990 α      lambda       -0.2434285E-05
   maximum displ.:     0.0392135 α      in ANC's #1, #2, #4, ...

........................................................................
.............................. CYCLE   18 ..............................
........................................................................

 iter      E             dE          RMSdq      gap      omega  full diag
   1    -51.8746332 -0.518746E+02  0.147E-02    3.44       0.0  T
   2    -51.8746332 -0.912684E-07  0.857E-03    3.44       2.2  T
   3    -51.8746332  0.323814E-07  0.192E-03    3.44       9.8  T
   4    -51.8746333 -0.601350E-07  0.489E-04    3.44      38.6  T
   5    -51.8746333 -0.608004E-09  0.225E-04    3.44      84.0  T
   6    -51.8746333 -0.380282E-09  0.922E-05    3.44     204.9  T
   7    -51.8746333 -0.450129E-10  0.379E-05    3.44     498.4  T
     SCC iter.                  ...        0 min,  0.006 sec
     gradient                   ...        0 min,  0.008 sec
 * total energy  :   -51.2294657 Eh     change       -0.3024377E-05 Eh
   gradient norm :     0.0006823 Eh/α   predicted    -0.1220417E-05 ( -59.65%)
   displ. norm   :     0.0621096 α      lambda       -0.2778099E-05
   maximum displ.:     0.0440734 α      in ANC's #1, #2, #4, ...

........................................................................
.............................. CYCLE   19 ..............................
........................................................................

 iter      E             dE          RMSdq      gap      omega  full diag
   1    -51.8745954 -0.518746E+02  0.184E-02    3.44       0.0  T
   2    -51.8745955 -0.104330E-06  0.107E-02    3.44       1.8  T
   3    -51.8745955  0.234397E-07  0.201E-03    3.44       9.4  T
   4    -51.8745956 -0.600530E-07  0.534E-04    3.44      35.4  T
   5    -51.8745956 -0.267718E-09  0.209E-04    3.44      90.4  T
   6    -51.8745956 -0.381156E-09  0.848E-05    3.44     222.8  T
   7    -51.8745956 -0.295657E-10  0.375E-05    3.44     504.1  T
     SCC iter.                  ...        0 min,  0.005 sec
     gradient                   ...        0 min,  0.007 sec
 * total energy  :   -51.2294692 Eh     change       -0.3495519E-05 Eh
   gradient norm :     0.0009281 Eh/α   predicted    -0.1391739E-05 ( -60.19%)
   displ. norm   :     0.0800595 α      lambda       -0.3370085E-05
   maximum displ.:     0.0560617 α      in ANC's #1, #2, #4, ...

........................................................................
.............................. CYCLE   20 ..............................
........................................................................

 iter      E             dE          RMSdq      gap      omega  full diag
   1    -51.8745026 -0.518745E+02  0.241E-02    3.44       0.0  T
   2    -51.8745027 -0.164407E-06  0.140E-02    3.44       1.4  T
   3    -51.8745027  0.384987E-07  0.260E-03    3.44       7.3  T
   4    -51.8745028 -0.992125E-07  0.683E-04    3.44      27.7  T
   5    -51.8745028 -0.692495E-09  0.307E-04    3.44      61.5  T
   6    -51.8745028 -0.640632E-09  0.107E-04    3.44     175.9  T
   7    -51.8745028 -0.792966E-10  0.440E-05    3.44     429.7  T
     SCC iter.                  ...        0 min,  0.005 sec
     gradient                   ...        0 min,  0.007 sec
 * total energy  :   -51.2294735 Eh     change       -0.4239692E-05 Eh
   gradient norm :     0.0008062 Eh/α   predicted    -0.1693661E-05 ( -60.05%)
   displ. norm   :     0.0754731 α      lambda       -0.2915994E-05
   maximum displ.:     0.0528454 α      in ANC's #1, #2, #4, ...
 * RMSD in coord.:     0.2113728 α      energy gain  -0.3860680E-02 Eh

generating ANC from exact Hessian ...
Using Lindh-Hessian (1995)
 Shifting diagonal of input Hessian by    9.5625736405530303E-003
 Lowest  eigenvalues of input Hessian
    0.000000    0.000000    0.000000    0.000000    0.000000    0.000000
    0.010000    0.011174    0.011515    0.012985    0.015839    0.016721
    0.021444    0.023740    0.024725    0.026006    0.029378    0.032419
 Highest eigenvalues
    2.001253    2.044943    2.164808    2.196131    2.621740    3.384193


........................................................................
.............................. CYCLE   21 ..............................
........................................................................

 iter      E             dE          RMSdq      gap      omega  full diag
   1    -51.8744726 -0.518745E+02  0.228E-02    3.44       0.0  T
   2    -51.8744727 -0.141095E-06  0.132E-02    3.44       1.4  T
   3    -51.8744727  0.139191E-07  0.214E-03    3.44       8.8  T
   4    -51.8744728 -0.618237E-07  0.668E-04    3.44      28.3  T
   5    -51.8744728 -0.181080E-08  0.306E-04    3.44      61.7  T
   6    -51.8744728 -0.261942E-09  0.119E-04    3.44     159.4  T
   7    -51.8744728 -0.147644E-09  0.388E-05    3.44     487.2  T
     SCC iter.                  ...        0 min,  0.005 sec
     gradient                   ...        0 min,  0.007 sec
 * total energy  :   -51.2294769 Eh     change       -0.3481552E-05 Eh
   gradient norm :     0.0005355 Eh/α   predicted     0.0000000E+00 (-100.00%)
   displ. norm   :     0.0093815 α      lambda       -0.4643935E-06
   maximum displ.:     0.0073069 α      in ANC's #1, #2, #6, ...

........................................................................
.............................. CYCLE   22 ..............................
........................................................................

 iter      E             dE          RMSdq      gap      omega  full diag
   1    -51.8745933 -0.518746E+02  0.270E-03    3.44       0.0  T
   2    -51.8745933 -0.515128E-08  0.155E-03    3.44      12.2  T
   3    -51.8745933  0.175355E-09  0.380E-04    3.44      49.8  T
   4    -51.8745933 -0.109118E-08  0.153E-04    3.44     123.3  T
   5    -51.8745933 -0.188734E-09  0.480E-05    3.44     393.4  T
     SCC iter.                  ...        0 min,  0.004 sec
     gradient                   ...        0 min,  0.007 sec
 * total energy  :   -51.2294781 Eh     change       -0.1103566E-05 Eh
   gradient norm :     0.0002988 Eh/α   predicted    -0.4499508E-06 ( -59.23%)
   displ. norm   :     0.0255712 α      lambda       -0.1470073E-05
   maximum displ.:     0.0193883 α      in ANC's #1, #2, #6, ...

........................................................................
.............................. CYCLE   23 ..............................
........................................................................

 iter      E             dE          RMSdq      gap      omega  full diag
   1    -51.8746874 -0.518747E+02  0.736E-03    3.44       0.0  T
   2    -51.8746874 -0.313400E-07  0.424E-03    3.44       4.5  T
   3    -51.8746874 -0.542537E-08  0.748E-04    3.44      25.3  T
   4    -51.8746874 -0.116796E-08  0.347E-04    3.44      54.4  T
   5    -51.8746874 -0.106755E-08  0.113E-04    3.44     166.9  T
   6    -51.8746874 -0.339568E-10  0.404E-05    3.44     467.6  T
     SCC iter.                  ...        0 min,  0.005 sec
     gradient                   ...        0 min,  0.007 sec
 * total energy  :   -51.2294799 Eh     change       -0.1852383E-05 Eh
   gradient norm :     0.0003785 Eh/α   predicted    -0.9080285E-06 ( -50.98%)
   displ. norm   :     0.0193660 α      lambda       -0.7088600E-06
   maximum displ.:     0.0157600 α      in ANC's #1, #2, #6, ...

........................................................................
.............................. CYCLE   24 ..............................
........................................................................

 iter      E             dE          RMSdq      gap      omega  full diag
   1    -51.8746019 -0.518746E+02  0.509E-03    3.44       0.0  T
   2    -51.8746019 -0.121487E-07  0.293E-03    3.44       6.5  T
   3    -51.8746019 -0.735341E-10  0.648E-04    3.44      29.2  T
   4    -51.8746019 -0.363799E-08  0.270E-04    3.44      70.1  T
   5    -51.8746019 -0.343327E-09  0.693E-05    3.44     272.9  T
   6    -51.8746019 -0.202718E-10  0.313E-05    3.44     604.7  T
     SCC iter.                  ...        0 min,  0.005 sec
     gradient                   ...        0 min,  0.008 sec
 * total energy  :   -51.2294807 Eh     change       -0.7888921E-06 Eh
   gradient norm :     0.0003855 Eh/α   predicted    -0.3639859E-06 ( -53.86%)
   displ. norm   :     0.0193660 α      lambda        0.0000000E+00
   maximum displ.:     0.0157600 α      in ANC's #1, #2, #6, ...

   *** GEOMETRY OPTIMIZATION CONVERGED AFTER 24 ITERATIONS ***

------------------------------------------------------------------------
 total energy gain   :        -0.0038679 Eh       -2.4271 kcal/mol
 total RMSD          :         0.2184063 a0        0.1156 Å
 total power (kW/mol):        -0.4231327 (step)  -25.5104 (real)
------------------------------------------------------------------------

 ANCopt (total)                0 d,  0 h,  0 min,  0.398 sec
 optimizer setup                ...        0 min,  0.000 sec (  0.042%)
 model hessian                  ...        0 min,  0.005 sec (  1.350%)
 ANC generation                 ...        0 min,  0.001 sec (  0.239%)
 coordinate transformation      ...        0 min,  0.000 sec (  0.031%)
 single point calculation       ...        0 min,  0.388 sec ( 97.413%)
 optimization log               ...        0 min,  0.002 sec (  0.424%)
 hessian update                 ...        0 min,  0.000 sec (  0.051%)
 rational function              ...        0 min,  0.001 sec (  0.293%)

================
 final structure:
================
28
 xtb: 6.7.1 (edcfbbe)
N            0.45954846278838        0.50902484337504       -0.83430673717671
C            1.76969236029816        0.35706752871258       -0.57111602300152
C            2.27984377752540        0.61001401092803        0.71747177350904
C            3.62158495673993        0.46806125049631        0.97928374940218
C            2.66437792231552       -0.05211255526018       -1.57881366332100
C            4.00546425304834       -0.19454474653682       -1.31048740978145
C            4.47880969975983        0.06577349018044       -0.03413192696230
S            6.19956295521196       -0.04398297197258        0.31537742879046
N            6.77844391128178        1.54139466030647        0.30268584157123
C            6.56592041802430        2.32248017860615       -0.80549365329528
C            6.61137468768787        1.89594154974087       -2.15967701285565
C            6.37089193405120        3.03639418491884       -2.86920557208893
O            6.19661512710982        4.05906068617018       -2.01150055455299
N            6.31187998231759        3.61047041339246       -0.72619055149901
C            6.27601342897171        3.31337062384432       -4.31920011413038
O            6.43418917449961       -0.49122564639827        1.67108709735347
O            6.89291902303392       -0.76642441731475       -0.72727400284792
H           -0.17600593348141        0.76520320048210       -0.10106141516496
H            0.09967927344870        0.28922812672759       -1.74494704199157
H            1.60790806162832        0.91798212818062        1.50209127049835
H            4.02923989544561        0.64425892684064        1.96156338371027
H            2.28930237296510       -0.25651022950459       -2.56853904815358
H            4.70298393566609       -0.51969892817608       -2.06467030678101
H            6.66691747535910        2.02342334158880        1.18254762923288
H            6.81616576822961        0.90549392262993       -2.50086720856632
H            6.44678981522430        2.39927202857785       -4.87628791491644
H            7.01536342221881        4.06000871213936       -4.60017696907236
H            5.29200373862956        3.71259638732484       -4.55406274790874

 Bond Distances (Angstroems)
 ---------------------------
N1-C2=1.3449         N1-H18=1.0036        N1-H19=1.0035        C2-N1=1.3449         C2-C3=1.4088         C2-C5=1.4083         
C3-C2=1.4088         C3-C4=1.3744         C3-H20=1.0779        C4-C3=1.3744         C4-C7=1.3870         C4-H21=1.0780        
C5-C2=1.4083         C5-C6=1.3751         C5-H22=1.0780        C6-C5=1.3751         C6-C7=1.3860         C6-H23=1.0775        
C7-C4=1.3870         C7-C6=1.3860         C7-S8=1.7593         S8-C7=1.7593         S8-N9=1.6878         S8-O16=1.4467        
S8-O17=1.4456        N9-S8=1.6878         N9-C10=1.3723        N9-H24=1.0094        C10-N9=1.3723        C10-C11=1.4205       
C10-N14=1.3152       C11-C10=1.4205       C11-C12=1.3645       C11-H25=1.0674       C12-C11=1.3645       C12-O13=1.3461       
C12-C15=1.4793       O13-C12=1.3461       O13-N14=1.3662       N14-C10=1.3152       N14-O13=1.3662       C15-C12=1.4793       
C15-H26=1.0840       C15-H27=1.0877       C15-H28=1.0876       O16-S8=1.4467        O17-S8=1.4456        H18-N1=1.0036        
H19-N1=1.0035        H20-C3=1.0779        H21-C4=1.0780        H22-C5=1.0780        H23-C6=1.0775        H24-N9=1.0094        
H25-C11=1.0674       H26-C15=1.0840       H27-C15=1.0877       H28-C15=1.0876       
 C  H  Rav=1.0798 sigma=0.0062  Rmin=1.0674  Rmax=1.0877     8
 C  C  Rav=1.4004 sigma=0.0329  Rmin=1.3645  Rmax=1.4793     9
 N  H  Rav=1.0055 sigma=0.0028  Rmin=1.0035  Rmax=1.0094     3
 N  C  Rav=1.3442 sigma=0.0233  Rmin=1.3152  Rmax=1.3723     3
 O  C  Rav=1.3461 sigma=0.0000  Rmin=1.3461  Rmax=1.3461     1
 O  N  Rav=1.3662 sigma=0.0000  Rmin=1.3662  Rmax=1.3662     1
 S  C  Rav=1.7593 sigma=0.0000  Rmin=1.7593  Rmax=1.7593     1
 S  N  Rav=1.6878 sigma=0.0000  Rmin=1.6878  Rmax=1.6878     1
 S  O  Rav=1.4462 sigma=0.0006  Rmin=1.4456  Rmax=1.4467     2

 selected bond angles (degree)
 --------------------
H18-N1-C2=120.18               H19-N1-C2=120.14               H19-N1-H18=119.46              C3-C2-N1=120.76                
C5-C2-N1=120.77                C5-C2-C3=118.46                C4-C3-C2=120.61                H20-C3-C2=119.43               
H20-C3-C4=119.96               C7-C4-C3=119.61                H21-C4-C3=121.73               H21-C4-C7=118.65               
C6-C5-C2=120.67                H22-C5-C2=119.41               H22-C5-C6=119.93               C7-C6-C5=119.56                
H23-C6-C5=121.74               H23-C6-C7=118.70               C6-C7-C4=121.08                S8-C7-C4=118.52                
S8-C7-C6=120.35                N9-S8-C7=105.98                O16-S8-C7=111.35               O16-S8-N9=103.99               
O17-S8-C7=110.92               O17-S8-N9=107.43               O17-S8-O16=116.33              C10-N9-S8=119.18               
H24-N9-S8=113.83               H24-N9-C10=114.52              C11-C10-N9=126.44              N14-C10-N9=122.59              
N14-C10-C11=110.96             

 selected dihedral angles (degree)
 ---------------------------------
C3-C2-N1-H18=357.22           C3-C2-N1-H19=182.58           C5-C2-N1-H18=177.54           C5-C2-N1-H19=  2.90           
C4-C3-C2-N1=180.73            C4-C3-C2-C5=  0.41            H20-C3-C2-N1=  0.70           H20-C3-C2-C5=180.38           
C7-C4-C3-C2=359.69            C7-C4-C3-H20=179.72           H21-C4-C3-C2=180.82           H21-C4-C3-H20=  0.85          
C6-C5-C2-N1=179.38            C6-C5-C2-C3=359.69            H22-C5-C2-N1=359.26           H22-C5-C2-C3=179.57           
C7-C6-C5-C2=  0.10            C7-C6-C5-H22=180.22           H23-C6-C5-C2=179.14           H23-C6-C5-H22=359.26          
C6-C7-C4-C3=  0.10            C6-C7-C4-H21=179.00           S8-C7-C4-C3=177.57            S8-C7-C4-H21=356.47           
C4-C7-C6-C5=  0.00            C4-C7-C6-H23=180.95           S8-C7-C6-C5=182.58            S8-C7-C6-H23=  3.52           
N9-S8-C7-C4=282.75            N9-S8-C7-C6=100.24            O16-S8-C7-C4= 35.21           O16-S8-C7-C6=212.70           
O17-S8-C7-C4=166.46           O17-S8-C7-C6=343.95           C10-N9-S8-C7=305.02           C10-N9-S8-O16=187.52          
C10-N9-S8-O17= 63.65          H24-N9-S8-C7= 85.04           H24-N9-S8-O16=327.55          H24-N9-S8-O17=203.67          
C11-C10-N9-S8=322.00          C11-C10-N9-H24=182.24         N14-C10-N9-S8=143.40          N14-C10-N9-H24=  3.63         
           -------------------------------------------------
          |                Final Singlepoint                |
           -------------------------------------------------

          ...................................................
          :                      SETUP                      :
          :.................................................:
          :  # basis functions                  85          :
          :  # atomic orbitals                  84          :
          :  # shells                           46          :
          :  # electrons                        90          :
          :  max. iterations                   250          :
          :  Hamiltonian                  GFN2-xTB          :
          :  restarted?                      false          :
          :  GBSA solvation                   true          :
          :  PC potential                    false          :
          :  electronic temp.          300.0000000     K    :
          :  accuracy                    0.2000000          :
          :  -> integral cutoff          0.3198970E+02      :
          :  -> integral neglect         0.2000000E-08      :
          :  -> SCF convergence          0.2000000E-06 Eh   :
          :  -> wf. convergence          0.2000000E-04 e    :
          :  Broyden damping             0.4000000          :
          :  net charge                          0          :
          :  unpaired electrons                  0          :
          ...................................................

 iter      E             dE          RMSdq      gap      omega  full diag
   1    -51.8746019 -0.518746E+02  0.122E-05    3.44       0.0  T
   2    -51.8746019 -0.333955E-12  0.778E-06    3.44    2430.4  T
   3    -51.8746019 -0.355271E-13  0.509E-06    3.44    3709.4  T

   *** convergence criteria satisfied after 3 iterations ***

         #    Occupation            Energy/Eh            Energy/eV
      -------------------------------------------------------------
         1        2.0000           -0.7945490             -21.6208
       ...           ...                  ...                  ...
        39        2.0000           -0.4429434             -12.0531
        40        2.0000           -0.4366770             -11.8826
        41        2.0000           -0.4238118             -11.5325
        42        2.0000           -0.4204663             -11.4415
        43        2.0000           -0.4195445             -11.4164
        44        2.0000           -0.4101346             -11.1603
        45        2.0000           -0.3748833             -10.2011 (HOMO)
        46                         -0.2484190              -6.7598 (LUMO)
        47                         -0.2403377              -6.5399
        48                         -0.2373567              -6.4588
        49                         -0.1830530              -4.9811
        50                         -0.1284970              -3.4966
       ...                                ...                  ...
        84                          1.1701641              31.8418
      -------------------------------------------------------------
                  HL-Gap            0.1264643 Eh            3.4413 eV
             Fermi-level           -0.3116512 Eh           -8.4805 eV

 SCC (total)                   0 d,  0 h,  0 min,  0.013 sec
 SCC setup                      ...        0 min,  0.000 sec (  3.192%)
 Dispersion                     ...        0 min,  0.000 sec (  0.737%)
 classical contributions        ...        0 min,  0.000 sec (  0.326%)
 integral evaluation            ...        0 min,  0.002 sec ( 18.545%)
 iterations                     ...        0 min,  0.002 sec ( 18.426%)
 molecular gradient             ...        0 min,  0.007 sec ( 57.554%)
 printout                       ...        0 min,  0.000 sec (  1.142%)

         :::::::::::::::::::::::::::::::::::::::::::::::::::::
         ::                     SUMMARY                     ::
         :::::::::::::::::::::::::::::::::::::::::::::::::::::
         :: total energy             -51.229480693090 Eh    ::
         :: total w/o Gsasa/hb       -51.219738187311 Eh    ::
         :: gradient norm              0.000385696950 Eh/a0 ::
         :: HOMO-LUMO gap              3.441269427132 eV    ::
         ::.................................................::
         :: SCC energy               -51.874130462288 Eh    ::
         :: -> isotropic ES            0.128174683237 Eh    ::
         :: -> anisotropic ES         -0.019508670093 Eh    ::
         :: -> anisotropic XC          0.021313939873 Eh    ::
         :: -> dispersion             -0.031402025342 Eh    ::
         :: -> Gsolv                  -0.046406954372 Eh    ::
         ::    -> Gelec               -0.036664448594 Eh    ::
         ::    -> Gsasa               -0.000739406556 Eh    ::
         ::    -> Ghb                 -0.010083858920 Eh    ::
         ::    -> Gshift               0.001080759698 Eh    ::
         :: repulsion energy           0.644649769198 Eh    ::
         :: add. restraining           0.000000000000 Eh    ::
         :: total charge               0.000000000000 e     ::
         :::::::::::::::::::::::::::::::::::::::::::::::::::::

           ------------------------------------------------- 
          |                Numerical Hessian                |
           ------------------------------------------------- 
step length          :   0.00500
SCC accuracy         :   0.30000
Hessian scale factor :   1.00000
frozen atoms in %    :   0.00000    0
RMS gradient         :   0.00039
estimated CPU  time      0.04 min
estimated wall time      0.04 min

writing file <hessian>.

 projected vibrational frequencies (cm⁻¹)
eigval :       -0.00    -0.00    -0.00    -0.00     0.00     0.00
eigval :       13.50    24.40    52.56    64.04    80.25    97.45
eigval :      127.65   155.98   194.88   213.35   232.29   264.05
eigval :      298.12   328.93   342.55   350.71   375.92   387.36
eigval :      402.12   463.56   488.86   490.00   499.55   555.78
eigval :      600.89   601.57   629.57   641.22   661.21   666.03
eigval :      724.58   792.45   794.94   819.65   847.64   851.55
eigval :      902.16   912.89   962.09   971.23   986.93  1004.45
eigval :     1023.98  1027.66  1054.17  1068.78  1104.24  1116.42
eigval :     1120.61  1160.65  1175.95  1185.15  1245.47  1251.88
eigval :     1319.62  1357.08  1378.64  1422.49  1424.20  1426.37
eigval :     1428.23  1435.24  1509.97  1529.52  1561.48  1581.55
eigval :     1594.73  3028.80  3040.66  3081.10  3099.51  3102.89
eigval :     3109.88  3115.57  3220.69  3436.03  3494.00  3561.45
           -------------------------------------------------
          |                Property Printout                |
           -------------------------------------------------

    * Orbital Energies and Occupations

         #    Occupation            Energy/Eh            Energy/eV
      -------------------------------------------------------------
         1        2.0000           -0.7945491             -21.6208
       ...           ...                  ...                  ...
        33        2.0000           -0.4834521             -13.1554
        34        2.0000           -0.4795881             -13.0503
        35        2.0000           -0.4725261             -12.8581
        36        2.0000           -0.4712297             -12.8228
        37        2.0000           -0.4661554             -12.6847
        38        2.0000           -0.4622431             -12.5783
        39        2.0000           -0.4429433             -12.0531
        40        2.0000           -0.4366770             -11.8826
        41        2.0000           -0.4238117             -11.5325
        42        2.0000           -0.4204663             -11.4415
        43        2.0000           -0.4195445             -11.4164
        44        2.0000           -0.4101346             -11.1603
        45        2.0000           -0.3748833             -10.2011 (HOMO)
        46                         -0.2484190              -6.7598 (LUMO)
        47                         -0.2403377              -6.5399
        48                         -0.2373566              -6.4588
        49                         -0.1830530              -4.9811
        50                         -0.1284970              -3.4966
        51                         -0.1274889              -3.4692
        52                         -0.0832828              -2.2662
        53                         -0.0747148              -2.0331
        54                         -0.0531483              -1.4462
        55                         -0.0257942              -0.7019
        56                          0.0280379               0.7630
       ...                                ...                  ...
        84                          1.1701641              31.8418
      -------------------------------------------------------------
                  HL-Gap            0.1264643 Eh            3.4413 eV
             Fermi-level           -0.3116512 Eh           -8.4805 eV

     #   Z          covCN         q      C6AA      α(0)
     1   7 N        2.645    -0.268    26.929     7.707
     2   6 C        2.896     0.101    25.772     8.324
     3   6 C        2.925    -0.066    29.639     8.928
     4   6 C        2.969    -0.033    28.829     8.807
     5   6 C        2.926    -0.067    29.673     8.933
     6   6 C        2.958    -0.031    28.778     8.799
     7   6 C        2.973    -0.117    30.969     9.128
     8  16 S        3.806     1.156   102.293    17.023
     9   7 N        2.689    -0.366    29.426     8.057
    10   6 C        3.082     0.147    24.730     8.152
    11   6 C        2.946    -0.113    30.854     9.110
    12   6 C        3.026     0.147    24.781     8.166
    13   8 O        1.819    -0.144    16.451     5.477
    14   7 N        1.937    -0.223    26.706     7.663
    15   6 C        3.754    -0.153    23.509     6.914
    16   8 O        0.860    -0.654    27.486     7.029
    17   8 O        0.860    -0.643    27.189     6.991
    18   1 H        0.861     0.233     0.954     1.530
    19   1 H        0.861     0.233     0.950     1.527
    20   1 H        0.926     0.076     2.025     2.225
    21   1 H        0.926     0.049     2.327     2.385
    22   1 H        0.926     0.077     2.007     2.215
    23   1 H        0.926     0.052     2.300     2.372
    24   1 H        0.862     0.247     0.893     1.480
    25   1 H        0.927     0.056     2.249     2.345
    26   1 H        0.925     0.092     1.857     2.131
    27   1 H        0.925     0.103     1.755     2.072
    28   1 H        0.925     0.108     1.714     2.047

 Mol. C6AA /au·bohr⁶  :      11453.248997
 Mol. C8AA /au·bohr⁸  :     293037.787726
 Mol. α(0) /au        :        167.537497


molecular dipole:
                 x           y           z       tot (Debye)
 q only:       -4.639       1.167      -2.100
   full:       -4.332       0.899      -1.945      12.285
molecular quadrupole (traceless):
                xx          xy          yy          xz          yz          zz
 q only:      -71.033      17.101      20.815     -27.986      -7.270      50.218
  q+dip:      -62.348      12.813      12.995     -26.305      -3.919      49.353
   full:      -62.585      13.725      14.320     -26.304      -5.135      48.264

           -------------------------------------------------
          |                Geometry Summary                 |
           -------------------------------------------------

      molecular mass/u    :      253.2778190
   center of mass at/Å    :        5.0628144       1.1045190      -0.7369284
  moments of inertia/u·Å² :        0.9421308E+03   0.1435018E+04   0.1953339E+04
rotational constants/cm⁻¹ :        0.1789309E-01   0.1174733E-01   0.8630161E-02

 * 29 selected distances

     #   Z          #   Z                                           value/Å
     1   7 N        2   6 C                                       1.3449304
     2   6 C        3   6 C                                       1.4087921
     3   6 C        4   6 C                                       1.3743965
     2   6 C        5   6 C                                       1.4083130
     5   6 C        6   6 C                                       1.3750632
     4   6 C        7   6 C                                       1.3869684
     6   6 C        7   6 C                                       1.3859672
     7   6 C        8  16 S                                       1.7593168 (max)
     8  16 S        9   7 N                                       1.6878054
     9   7 N       10   6 C                                       1.3723421
    10   6 C       11   6 C                                       1.4204979
    11   6 C       12   6 C                                       1.3645128
    12   6 C       13   8 O                                       1.3460600
    10   6 C       14   7 N                                       1.3151976
    13   8 O       14   7 N                                       1.3662142
    12   6 C       15   6 C                                       1.4792574
     8  16 S       16   8 O                                       1.4467289
     8  16 S       17   8 O                                       1.4456094
     1   7 N       18   1 H                                       1.0035963
     1   7 N       19   1 H                                       1.0035349 (min)
     3   6 C       20   1 H                                       1.0779471
     4   6 C       21   1 H                                       1.0780082
     5   6 C       22   1 H                                       1.0779688
     6   6 C       23   1 H                                       1.0775208
     9   7 N       24   1 H                                       1.0094289
    11   6 C       25   1 H                                       1.0673972
    15   6 C       26   1 H                                       1.0840147
    15   6 C       27   1 H                                       1.0876833
    15   6 C       28   1 H                                       1.0875739

 * 9 distinct bonds (by element types)

   Z      Z             #   av. dist./Å        max./Å        min./Å
   1 H    6 C           8     1.0797642     1.0876833     1.0673972
   6 C    6 C           9     1.4004187     1.4792574     1.3645128
   1 H    7 N           3     1.0055201     1.0094289     1.0035349
   6 C    7 N           3     1.3441567     1.3723421     1.3151976
   6 C    8 O           1     1.3460600     1.3460600     1.3460600
   7 N    8 O           1     1.3662142     1.3662142     1.3662142
   6 C   16 S           1     1.7593168     1.7593168     1.7593168
   7 N   16 S           1     1.6878054     1.6878054     1.6878054
   8 O   16 S           2     1.4461692     1.4467289     1.4456094

           -------------------------------------------------
          |               Frequency Printout                |
           -------------------------------------------------
 projected vibrational frequencies (cm⁻¹)
eigval :       -0.00    -0.00    -0.00    -0.00     0.00     0.00
eigval :       13.50    24.40    52.56    64.04    80.25    97.45
eigval :      127.65   155.98   194.88   213.35   232.29   264.05
eigval :      298.12   328.93   342.55   350.71   375.92   387.36
eigval :      402.12   463.56   488.86   490.00   499.55   555.78
eigval :      600.89   601.57   629.57   641.22   661.21   666.03
eigval :      724.58   792.45   794.94   819.65   847.64   851.55
eigval :      902.16   912.89   962.09   971.23   986.93  1004.45
eigval :     1023.98  1027.66  1054.17  1068.78  1104.24  1116.42
eigval :     1120.61  1160.65  1175.95  1185.15  1245.47  1251.88
eigval :     1319.62  1357.08  1378.64  1422.49  1424.20  1426.37
eigval :     1428.23  1435.24  1509.97  1529.52  1561.48  1581.55
eigval :     1594.73  3028.80  3040.66  3081.10  3099.51  3102.89
eigval :     3109.88  3115.57  3220.69  3436.03  3494.00  3561.45
 reduced masses (amu)
   1: 13.36   2: 17.67   3: 14.86   4: 12.11   5: 13.11   6: 15.37   7: 10.66   8: 12.79
   9: 11.53  10:  1.35  11: 12.11  12: 13.14  13: 13.46  14: 12.07  15:  6.55  16:  9.06
  17: 13.25  18: 14.49  19: 14.49  20: 12.12  21: 16.09  22: 12.22  23:  8.72  24: 12.22
  25: 10.94  26: 12.68  27: 12.15  28: 18.72  29:  1.78  30: 10.32  31: 12.30  32: 11.33
  33: 10.78  34: 15.50  35: 11.02  36: 11.48  37: 13.98  38: 12.78  39:  5.18  40:  3.41
  41:  3.37  42: 11.43  43:  2.70  44:  3.75  45:  8.43  46:  4.34  47:  9.81  48:  8.57
  49:  4.64  50:  8.84  51: 14.29  52: 14.62  53:  6.67  54: 10.44  55:  2.62  56: 12.04
  57:  4.00  58: 17.80  59: 11.07  60:  3.39  61:  7.31  62: 11.27  63:  3.38  64: 11.05
  65:  4.29  66: 10.70  67:  1.56  68:  2.38  69: 10.85  70: 12.30  71: 11.70  72: 11.53
  73: 11.65  74:  1.95  75:  1.44  76:  1.79  77:  1.78  78:  1.79  79:  1.89  80:  1.88
  81:  1.92  82:  1.85  83:  1.43  84:  2.21
 IR intensities (km·mol⁻¹)
   1:  1.38   2:  1.97   3:  1.56   4:  1.44   5:  1.36   6:  1.79   7:  0.89   8:  3.01
   9:  3.01  10:  0.41  11:  1.81  12:  9.84  13:  2.96  14:  2.90  15:199.81  16: 81.60
  17: 25.03  18: 16.47  19:  1.49  20:  7.41  21: 18.13  22:  0.63  23:  0.56  24:  8.13
  25:  3.19  26: 41.30  27:116.24  28:202.17  29:  0.89  30:369.28  31:  1.40  32:  1.23
  33: 28.87  34:149.79  35: 21.47  36: 37.68  37:152.02  38:169.36  39: 31.44  40: 40.33
  41:  0.85  42: 30.03  43:  0.06  44:  0.29  45: 54.86  46:  6.94  47: 12.40  48: 14.20
  49: 12.60  50: 18.13  51:412.79  52:160.44  53: 41.14  54:359.05  55: 22.74  56:194.35
  57: 44.71  58:653.10  59: 88.36  60:  1.35  61:171.47  62: 10.09  63: 11.72  64:316.75
  65:107.78  66:  1.56  67: 11.88  68: 24.95  69:305.74  70:196.90  71: 21.82  72:669.57
  73:301.95  74:  1.75  75:  4.44  76:  5.98  77: 10.68  78: 23.35  79: 60.15  80: 26.70
  81:  6.22  82: 82.73  83:217.15  84: 65.93
 Raman intensities (Ä⁴*amu⁻¹)
   1:  0.00   2:  0.00   3:  0.00   4:  0.00   5:  0.00   6:  0.00   7:  0.00   8:  0.00
   9:  0.00  10:  0.00  11:  0.00  12:  0.00  13:  0.00  14:  0.00  15:  0.00  16:  0.00
  17:  0.00  18:  0.00  19:  0.00  20:  0.00  21:  0.00  22:  0.00  23:  0.00  24:  0.00
  25:  0.00  26:  0.00  27:  0.00  28:  0.00  29:  0.00  30:  0.00  31:  0.00  32:  0.00
  33:  0.00  34:  0.00  35:  0.00  36:  0.00  37:  0.00  38:  0.00  39:  0.00  40:  0.00
  41:  0.00  42:  0.00  43:  0.00  44:  0.00  45:  0.00  46:  0.00  47:  0.00  48:  0.00
  49:  0.00  50:  0.00  51:  0.00  52:  0.00  53:  0.00  54:  0.00  55:  0.00  56:  0.00
  57:  0.00  58:  0.00  59:  0.00  60:  0.00  61:  0.00  62:  0.00  63:  0.00  64:  0.00
  65:  0.00  66:  0.00  67:  0.00  68:  0.00  69:  0.00  70:  0.00  71:  0.00  72:  0.00
  73:  0.00  74:  0.00  75:  0.00  76:  0.00  77:  0.00  78:  0.00  79:  0.00  80:  0.00
  81:  0.00  82:  0.00  83:  0.00  84:  0.00
 output can be read by thermo (or use thermo option).
 writing <g98.out> molden fake output.
 recommended (thermochemical) frequency scaling factor: 1.0
           -------------------------------------------------
          |             Thermodynamic Functions             |
           -------------------------------------------------

Refinement of some symmetry elements was terminated before convergence was reached.
Some symmetry elements may remain unidentified.
Molecule has no symmetry elements
It seems to be the C1 point group
c1  symmetry found (for desy threshold:  0.10E+00) used in thermo

          ...................................................
          :                      SETUP                      :
          :.................................................:
          :  # frequencies                          78      :
          :  # imaginary freq.                       0      :
          :  linear?                             false      :
          :  only rotor calc.                    false      :
          :  symmetry                               c1      :
          :  rotational number                       1      :
          :  scaling factor                  1.0000000      :
          :  rotor cutoff                    0.0000000 cm⁻¹ :
          :  imag. cutoff                  -20.0000000 cm⁻¹ :
          :.................................................:

    mode    ω/cm⁻¹     T·S(HO)/kcal·mol⁻¹    T·S(FR)/kcal·mol⁻¹   T·S(vib)
   ------------------------------------------------------------------------
       1     13.50    -2.21080 (100.00%)    -1.44421 (  0.00%)    -2.21080
       2     24.40    -1.86037 (100.00%)    -1.26899 (  0.00%)    -1.86037
       3     52.56    -1.40688 (100.00%)    -1.04170 (  0.00%)    -1.40688
       4     64.04    -1.29054 (100.00%)    -0.98316 (  0.00%)    -1.29054
       5     80.25    -1.15825 (100.00%)    -0.91635 (  0.00%)    -1.15825
       6     97.45    -1.04494 (100.00%)    -0.85884 (  0.00%)    -1.04494
       7    127.65    -0.88882 (100.00%)    -0.77886 (  0.00%)    -0.88882
       8    155.98    -0.77457 (100.00%)    -0.71948 (  0.00%)    -0.77457
       9    194.88    -0.65023 (100.00%)    -0.65353 (  0.00%)    -0.65023
      10    213.35    -0.60073 (100.00%)    -0.62672 (  0.00%)    -0.60073
      11    232.29    -0.55490 (100.00%)    -0.60151 (  0.00%)    -0.55490
      12    264.05    -0.48743 (100.00%)    -0.56356 (  0.00%)    -0.48743
      13    298.12    -0.42559 (100.00%)    -0.52761 (  0.00%)    -0.42559
   ------------------------------------------------------------------------

   temp. (K)  partition function   enthalpy   heat capacity  entropy
                                   cal/mol     cal/K/mol   cal/K/mol   J/K/mol
 298.15  VIB  0.493E+07             8741.889     56.592     59.946
         ROT  0.393E+07              888.752      2.981     33.154
         INT  0.194E+14             9630.642     59.573     93.099
         TR   0.390E+28             1481.254      4.968     42.469
         TOT                       11111.8955    64.5410   135.5680   567.2163

       T/K    H(0)-H(T)+PV         H(T)/Eh          T*S/Eh         G(T)/Eh
   ------------------------------------------------------------------------
    298.15    0.177079E-01    0.219712E+00    0.644127E-01    0.155299E+00
   ------------------------------------------------------------------------

         :::::::::::::::::::::::::::::::::::::::::::::::::::::
         ::                  THERMODYNAMIC                  ::
         :::::::::::::::::::::::::::::::::::::::::::::::::::::
         :: total free energy         -51.074181196332 Eh   ::
         ::.................................................::
         :: total energy              -51.229480692044 Eh   ::
         :: zero point energy           0.202004274467 Eh   ::
         :: G(RRHO) w/o ZPVE           -0.046704778755 Eh   ::
         :: G(RRHO) contrib.            0.155299495712 Eh   ::
         :::::::::::::::::::::::::::::::::::::::::::::::::::::

optimized geometry written to: xtbopt.xyz


           -------------------------------------------------
          | TOTAL ENERGY              -51.229480692044 Eh   |
          | TOTAL ENTHALPY            -51.009768484974 Eh   |
          | TOTAL FREE ENERGY         -51.074181196332 Eh   |
          | GRADIENT NORM               0.000385697663 Eh/α |
          | HOMO-LUMO GAP               3.441269888388 eV   |
           -------------------------------------------------

------------------------------------------------------------------------
 * finished run on 2026/07/25 at 12:24:12.994     
------------------------------------------------------------------------
 total:
 * wall-time:     0 d,  0 h,  0 min,  2.978 sec
 *  cpu-time:     0 d,  0 h,  0 min,  2.952 sec
 * ratio c/w:     0.991 speedup
 SCF:
 * wall-time:     0 d,  0 h,  0 min,  0.022 sec
 *  cpu-time:     0 d,  0 h,  0 min,  0.022 sec
 * ratio c/w:     0.992 speedup
 ANC optimizer:
 * wall-time:     0 d,  0 h,  0 min,  0.412 sec
 *  cpu-time:     0 d,  0 h,  0 min,  0.410 sec
 * ratio c/w:     0.995 speedup
 analytical hessian:
 * wall-time:     0 d,  0 h,  0 min,  2.535 sec
 *  cpu-time:     0 d,  0 h,  0 min,  2.512 sec
 * ratio c/w:     0.991 speedup

normal termination of xtb
Note: The following floating-point exceptions are signalling: IEEE_DIVIDE_BY_ZERO IEEE_UNDERFLOW_FLAG
