28
 energy: -51.229480693090 gnorm: 0.000385696950 xtb: 6.7.1 (edcfbbe)
N            0.45954821573649        0.50902098105246       -0.83430922971306
C            1.76969223628593        0.35705726584454       -0.57112282358926
C            2.27984947595794        0.61000332589600        0.71746275067221
C            3.62159082578244        0.46804399706937        0.97927029075740
C            2.66437213828862       -0.05212926143038       -1.57882287278886
C            4.00545865986031       -0.19456800630370       -1.31050105193469
C            4.47880992491672        0.06574997961587       -0.03414767575360
S            6.19956382567296       -0.04401488237594        0.31535586499568
N            6.77845303843741        1.54135969671459        0.30265949009486
C            6.56592976664729        2.32244439365495       -0.80552062616769
C            6.61137707595749        1.89590316332709       -2.15970339993273
C            6.37089781698628        3.03635581930446       -2.86923311018278
O            6.19662935867455        4.05902473001343       -2.01152926920231
N            6.31189635165964        3.61043609698282       -0.72621888557064
C            6.27601570070320        3.31333022431702       -4.31922780443981
O            6.43419243553340       -0.49125641915987        1.67106549513408
O            6.89291247124142       -0.76646177786199       -0.72729672600583
H           -0.17600227965981        0.76520394565176       -0.10106213631911
H            0.09967469680972        0.28922455932851       -1.74494789472290
H            1.60791811143547        0.91797633079609        1.50208405564790
H            4.02925011585959        0.64424125331817        1.96154819455087
H            2.28929206392077       -0.25652669915927       -2.56854659161200
H            4.70297400736108       -0.51972715642622       -2.06468581623041
H            6.66693219771535        2.02339049757306        1.18252082575175
H            6.81616177954799        0.90545386846465       -2.50089258183931
H            6.44678535614056        2.39922976258996       -4.87631460594065
H            7.01536862252218        4.05996395098119       -4.60020854332729
H            5.29200728089191        3.71256073014582       -4.55408770015499
