28
 energy: -51.229439002233 gnorm: 0.000336225033 xtb: 6.7.1 (edcfbbe)
N           -0.50161903232331       -0.07807488248126        0.07090536765246
C           -0.29287833676901       -0.05395399153605        1.39923092344080
C            1.01390561449327       -0.06146074520100        1.92441307766071
C            1.22411914547413       -0.04412313239893        3.28317499813306
C           -1.37724193658860       -0.02128620452855        2.29809744542306
C           -1.16122479098347       -0.00664267486586        3.65533875479183
C            0.13718397584220       -0.01653850321185        4.14270903297851
S            0.38307618229452       -0.06325324909678        5.88409279789105
N            0.18904780722350       -1.67691566208805        6.33999695007960
C            0.98046066436659       -2.64043501141682        5.76599376202358
C            2.36070436838630       -2.52459776934634        5.45078095930960
C            2.68366848599861       -3.74972090640385        4.94407194166923
O            1.58864895922587       -4.53261946560726        4.95535369427830
N            0.52747628852762       -3.83725008861037        5.46175314061157
C            3.94632744483648       -4.31739929553312        4.42279158659346
O            1.73374493267108        0.32164874538038        6.22638163229035
O           -0.67877229432876        0.62839021148218        6.58170423640364
H            0.27613154482106       -0.08029880232120       -0.56343771607133
H           -1.43643352318618       -0.05665891141438       -0.29324620278976
H            1.85526408409659       -0.07875992778909        1.25092223533237
H            2.21649787871043       -0.03650798937764        3.70297330391034
H           -2.38403661108236       -0.00781318177787        1.91315811829572
H           -1.97632739531252        0.03100366347192        4.35986290741306
H           -0.77601092778549       -1.94852115488672        6.45938567325729
H            2.97314422463697       -1.66502899530116        5.61117011622682
H            4.73685092267649       -3.57987584273861        4.50184022786781
H            3.81701504392678       -4.61178147998130        3.38379322013989
H            4.21211331550540       -5.20577929395287        4.99119537603771
