12
benzene optimized b3lyp/def2-svp (C1, gau_tight) E=-232.08478417 Ha; from benzene-ideal.xyz
C      1.39889945    -0.00000029     0.00000000
C      0.69942179     1.21141225     0.00000000
C     -0.69942220     1.21141256     0.00000000
C     -1.39889944     0.00000027     0.00000000
C     -0.69942183    -1.21141220     0.00000000
C      0.69942214    -1.21141261     0.00000000
H      2.49217906    -0.00000008    -0.00000000
H      1.24602125     2.15824881    -0.00000000
H     -1.24602166     2.15824908    -0.00000000
H     -2.49217891     0.00000008    -0.00000000
H     -1.24602127    -2.15824873    -0.00000000
H      1.24602163    -2.15824913    -0.00000000
