12
Benzene (C6H6) ideal D6h starting structure, built analytically: C-C 1.3915 A, C-H 1.0800 A, planar. Atom order C0-C5 then H6-H11 with H_i bonded to C_i. Input to the B3LYP/def2-SVP optimization; not itself a QM minimum.
C      1.39150000     0.00000000     0.00000000
C      0.69575000     1.20507435     0.00000000
C     -0.69575000     1.20507435     0.00000000
C     -1.39150000     0.00000000     0.00000000
C     -0.69575000    -1.20507435     0.00000000
C      0.69575000    -1.20507435     0.00000000
H      2.47150000     0.00000000     0.00000000
H      1.23575000     2.14038179     0.00000000
H     -1.23575000     2.14038179     0.00000000
H     -2.47150000     0.00000000     0.00000000
H     -1.23575000    -2.14038179     0.00000000
H      1.23575000    -2.14038179     0.00000000
