39
DCDHF-Me2 (C18H16N4O) UFF-preoptimized starting structure. Built in Avogadro from the connectivity of Lu et al. 2009; verbatim from posts/ai-comp-tools-SI.md lines 39-77 (UFF energy 44.1010644). NOT a QM-optimized geometry: input to the B3LYP/def2-SVP optimization only.
N          1.30016        1.74158        1.49069
C          0.93304        1.74035        0.13814
C         -0.18841        2.46517       -0.28855
H         -0.77438        3.03805        0.42543
C         -0.56453        2.52482       -1.63577
H         -1.43139        3.12966       -1.89443
C          0.16763        1.85097       -2.61881
C          1.28057        1.11677       -2.21283
H          1.87402        0.54966       -2.92382
C          1.66014        1.07514       -0.85989
H          2.53739        0.48626       -0.60735
C          0.22097        1.41135        2.42742
C          2.61408        1.22486        1.86436
H         -0.58363        2.15296        2.40671
H          0.59508        1.39787        3.45757
H         -0.19669        0.42145        2.21094
H          3.40721        1.68558        1.26470
H          2.66022        0.13550        1.76004
H          2.83404        1.47310        2.90897
C         -0.23019        1.98691       -4.02523
C         -1.44605        1.73833       -4.53771
C         -2.51721        1.11841       -3.84474
C          0.65874        2.54589       -5.10396
N         -3.38646        0.59284       -3.28407
O         -0.16750        2.51734       -6.30524
C         -1.47058        2.19592       -5.91182
C          1.90159        1.71406       -5.42867
C          1.03796        4.00891       -4.85646
H          1.65172        0.65234       -5.53864
H          2.67619        1.81370       -4.66232
H          2.33766        2.02717       -6.38495
H          0.14610        4.62934       -4.70756
H          1.55794        4.42529       -5.72711
H          1.68557        4.11961       -3.98083
C         -2.50517        2.43011       -6.74475
C         -3.86482        2.29156       -6.35795
C         -2.25639        2.93810       -8.05356
N         -4.97873        2.21982       -6.04165
N         -2.06490        3.35942       -9.11767
