39
DCDHF-Me2 optimized b3lyp/def2-svp (C1, gau_tight) E=-988.98532991 Ha; from dcdhf-me2-uff.xyz
N      1.30904445     1.41243686     1.49717918
C      0.91896163     1.60177690     0.19984786
C     -0.45236393     1.58536993    -0.17865352
H     -1.22850958     1.41961977     0.56670093
C     -0.84257364     1.77705171    -1.49053918
H     -1.90903438     1.75048218    -1.70011563
C      0.08908846     2.00133488    -2.54059967
C      1.45406296     2.01533597    -2.14959524
H      2.23630331     2.18013939    -2.88700425
C      1.86180714     1.82515138    -0.84076022
H      2.92845442     1.85050772    -0.62372551
C      0.31582887     1.18656161     2.53531343
C      2.71884727     1.43537886     1.84897938
H     -0.38186670     2.03707776     2.62965533
H      0.82206176     1.05812517     3.49961387
H     -0.28169609     0.27828663     2.34281311
H      3.18754635     2.40675388     1.61111269
H      3.28776974     0.64748898     1.32420606
H      2.82700161     1.26572675     2.92700724
C     -0.32435246     2.20230073    -3.91762159
C     -1.60107558     2.21807518    -4.46055388
C     -2.83855013     2.03673938    -3.78098144
C      0.65077628     2.44703165    -5.07783251
N     -3.83351045     1.88533408    -3.20019093
O     -0.22285864     2.58533457    -6.23125737
C     -1.50546083     2.45700193    -5.89239266
C      1.55746496     1.25006588    -5.39685949
C      1.41355118     3.77599373    -4.98500009
H      0.96047161     0.33109075    -5.48939395
H      2.32111076     1.09194639    -4.62476230
H      2.06138291     1.43397575    -6.35702580
H      0.71697019     4.60497577    -4.79253432
H      1.91732660     3.96253578    -5.94473326
H      2.16881040     3.76495673    -4.18891480
C     -2.47352689     2.56185153    -6.87381261
C     -3.87443295     2.44136530    -6.62448818
C     -2.06758797     2.80523154    -8.22449706
N     -5.02489527     2.35300751    -6.48467528
N     -1.75135736     3.00274952    -9.32527841
