28
SMX conformer B; Blackmon and Closser (2026) supplement
N   0.2399596000 -0.7884557000 -0.0057916000
C   1.5679748000 -0.4830164000  0.0535511000
C   2.1707797000 -0.1253468000  1.2748243000
C   3.5034772000  0.2274217000  1.3263929000
C   2.3560002000 -0.4752857000 -1.1148203000
C   3.6878554000 -0.1249954000 -1.0626040000
C   4.2675588000  0.2363084000  0.1568877000
S   5.9659793000  0.6236735000  0.2227574000
N   6.7947488000 -0.8310885000  0.3652014000
C   6.5409505000 -1.6893373000  1.4332946000
C   6.4253084000 -1.3674635000  2.8122000000
C   6.2319731000 -2.5691618000  3.4128763000
O   6.2357364000 -3.5459158000  2.4816044000
N   6.4186828000 -2.9771046000  1.2115366000
C   6.0336141000 -2.9764294000  4.8215760000
O   6.4040545000  1.1398785000 -1.0491525000
O   6.2341065000  1.3589824000  1.4317637000
H  -0.2423133000 -1.0057094000  0.8512722000
H  -0.1106946000 -1.2519084000 -0.8283673000
H   1.5767433000 -0.1277717000  2.1800018000
H   3.9520240000  0.5012053000  2.2704440000
H   1.9043012000 -0.7467611000 -2.0605436000
H   4.2813893000 -0.1232302000 -1.9664339000
H   6.8552254000 -1.3059379000 -0.5308052000
H   6.4850311000 -0.3989274000  3.2712552000
H   6.0776753000 -2.1014294000  5.4667082000
H   6.8051675000 -3.6845485000  5.1299536000
H   5.0629281000 -3.4603778000  4.9475298000
