      -----------------------------------------------------------      
     |                   =====================                   |     
     |                           x T B                           |     
     |                   =====================                   |     
     |                         S. Grimme                         |     
     |          Mulliken Center for Theoretical Chemistry        |     
     |                    University of Bonn                     |     
      -----------------------------------------------------------      

   * xtb version 6.7.1 (edcfbbe) compiled by 'runner@sat12-gn217-0cbadaec-b866-44ae-a866-732403219ae3-6E01A8DFFD18.local' on 2026-06-10

   xtb is free software: you can redistribute it and/or modify it under
   the terms of the GNU Lesser General Public License as published by
   the Free Software Foundation, either version 3 of the License, or
   (at your option) any later version.
   
   xtb is distributed in the hope that it will be useful,
   but WITHOUT ANY WARRANTY; without even the implied warranty of
   MERCHANTABILITY or FITNESS FOR A PARTICULAR PURPOSE.  See the
   GNU Lesser General Public License for more details.
   
   Cite this work as:
   * C. Bannwarth, E. Caldeweyher, S. Ehlert, A. Hansen, P. Pracht,
     J. Seibert, S. Spicher, S. Grimme, WIREs Comput. Mol. Sci., 2020, 11,
     e01493. DOI: 10.1002/wcms.1493
   
   for GFN2-xTB:
   * C. Bannwarth, S. Ehlert and S. Grimme., J. Chem. Theory Comput., 2019,
     15, 1652-1671. DOI: 10.1021/acs.jctc.8b01176
   for GFN1-xTB:
   * S. Grimme, C. Bannwarth, P. Shushkov, J. Chem. Theory Comput., 2017,
     13, 1989-2009. DOI: 10.1021/acs.jctc.7b00118
   for GFN0-xTB:
   * P. Pracht, E. Caldeweyher, S. Ehlert, S. Grimme, ChemRxiv, 2019, preprint.
     DOI: 10.26434/chemrxiv.8326202.v1
   for GFN-FF:
   * S. Spicher and S. Grimme, Angew. Chem. Int. Ed., 2020, 59, 15665-15673.
     DOI: 10.1002/anie.202004239
   
   for ALPB and GBSA implicit solvation:
   * S. Ehlert, M. Stahn, S. Spicher, S. Grimme, J. Chem. Theory Comput.,
     2021, 17, 4250-4261. DOI: 10.1021/acs.jctc.1c00471
   
   for ddCOSMO and CPCM-X implicit solvation:
   * M. Stahn, S. Ehlert, S. Grimme, J. Phys. Chem. A,
     2023, XX, XXXX-XXXX. DOI: 10.1021/acs.jpca.3c04382
   
   for DFT-D4:
   * E. Caldeweyher, C. Bannwarth and S. Grimme, J. Chem. Phys., 2017,
     147, 034112. DOI: 10.1063/1.4993215
   * E. Caldeweyher, S. Ehlert, A. Hansen, H. Neugebauer, S. Spicher,
     C. Bannwarth and S. Grimme, J. Chem. Phys., 2019, 150, 154122.
     DOI: 10.1063/1.5090222
   * E. Caldeweyher, J.-M. Mewes, S. Ehlert and S. Grimme, Phys. Chem. Chem. Phys.
     2020, 22, 8499-8512. DOI: 10.1039/D0CP00502A
   
   for sTDA-xTB:
   * S. Grimme and C. Bannwarth, J. Chem. Phys., 2016, 145, 054103.
     DOI: 10.1063/1.4959605
   
   in the mass-spec context:
   * V. Asgeirsson, C. Bauer and S. Grimme, Chem. Sci., 2017, 8, 4879.
     DOI: 10.1039/c7sc00601b
   * J. Koopman and S. Grimme, ACS Omega 2019, 4, 12, 15120-15133.
     DOI: 10.1021/acsomega.9b02011
   
   for metadynamics refer to:
   * S. Grimme, J. Chem. Theory Comput., 2019, 155, 2847-2862
     DOI: 10.1021/acs.jctc.9b00143
   
   for SPH calculations refer to:
   * S. Spicher and S. Grimme, J. Chem. Theory Comput., 2021, 17, 1701-1714
     DOI: 10.1021/acs.jctc.0c01306
   
   for ONIOM refer to:
   * C. Plett, A. Katbashev, S. Ehlert, S. Grimme, M. Bursch,
     Phys. Chem. Chem. Phys., 2023, 25, 17860-17868. DOI: 10.1039/D3CP02178E
   
   for DIPRO refer to:
   * J. Kohn, N. Gildemeister, S. Grimme, D. Fazzi, A. Hansen,
     J. Chem. Phys., 2023, just accepted.
   
   for PTB refer to:
   * S. Grimme, M. Mueller, A. Hansen, J. Chem. Phys., 2023, 158, 124111.
     DOI: 10.1063/5.0137838
   
   with help from (in alphabetical order)
   P. Atkinson, C. Bannwarth, F. Bohle, G. Brandenburg, E. Caldeweyher
   M. Checinski, S. Dohm, S. Ehlert, S. Ehrlich, I. Gerasimov, C. Hölzer
   A. Katbashev, J. Kohn, J. Koopman, C. Lavigne, S. Lehtola, F. März, M. Müller,
   F. Musil, H. Neugebauer, J. Pisarek, C. Plett, P. Pracht, F. Pultar,
   J. Seibert, P. Shushkov, S. Spicher, M. Stahn, M. Steiner, T. Strunk,
   J. Stückrath, T. Rose, and J. Unsleber
   
 * started run on 2026/07/25 at 12:24:06.578     
   ID    Z sym.   atoms
    1    7 N      1, 9, 14
    2    6 C      2-7, 10-12, 15
    3   16 S      8
    4    8 O      13, 16, 17
    5    1 H      18-28

           -------------------------------------------------
          |                Calculation Setup                |
           -------------------------------------------------

          program call               : /opt/homebrew/Caskroom/miniforge/base/envs/qchem/bin/xtb source.xyz --chrg 0 --uhf 0 --gfn 2 --alpb water --acc 0.2 --ohess tight --parallel 1 --json --ceasefiles -I control.inp
          coordinate file            : source.xyz
          omp threads                :                     1


           -------------------------------------------------
          |                 G F N 2 - x T B                 |
           -------------------------------------------------

        Reference                      10.1021/acs.jctc.8b01176
      * Hamiltonian:
        H0-scaling (s, p, d)           1.850000    2.230000    2.230000
        zeta-weighting                 0.500000
      * Dispersion:
        s8                             2.700000
        a1                             0.520000
        a2                             5.000000
        s9                             5.000000
      * Repulsion:
        kExp                           1.500000    1.000000
        rExp                           1.000000
      * Coulomb:
        alpha                          2.000000
        third order                    shell-resolved
        anisotropic                    true
        a3                             3.000000
        a5                             4.000000
        cn-shift                       1.200000
        cn-exp                         4.000000
        max-rad                        5.000000

      * Solvation model:               ALPB
        Solvent                        water
        Parameter file                 internal GFN2-xTB/ALPB
        Dielectric constant                8.0200E+01
        Reference state                gsolv [1 M gas/solution]
        Free energy shift                  1.0808E-03 Eh       6.7819E-01 kcal/mol
        Temperature                        2.9815E+02 K
        Density                            1.0000E+00 kg/L
        Solvent mass                       1.8000E+01 g/mol
        Interaction kernel             P16
        Born radius scaling (c1)           1.4744E+00
        Born radii integrator          GBOBC
        Born offset                        0.0000E+00 a0       0.0000E+00 AA
        H-bond correction              true
        Ion screening                  false
        Surface tension                    1.0000E-05 Eh       1.5569E+01 dyn/cm
        Grid points                               230 per atom

          ...................................................
          :                      SETUP                      :
          :.................................................:
          :  # basis functions                  85          :
          :  # atomic orbitals                  84          :
          :  # shells                           46          :
          :  # electrons                        90          :
          :  max. iterations                   250          :
          :  Hamiltonian                  GFN2-xTB          :
          :  restarted?                      false          :
          :  GBSA solvation                   true          :
          :  PC potential                    false          :
          :  electronic temp.          300.0000000     K    :
          :  accuracy                    0.2000000          :
          :  -> integral cutoff          0.3198970E+02      :
          :  -> integral neglect         0.2000000E-08      :
          :  -> SCF convergence          0.2000000E-06 Eh   :
          :  -> wf. convergence          0.2000000E-04 e    :
          :  Broyden damping             0.4000000          :
          :  net charge                          0          :
          :  unpaired electrons                  0          :
          ...................................................

 iter      E             dE          RMSdq      gap      omega  full diag
   1    -51.7741537 -0.517742E+02  0.546E+00    2.95       0.0  T
   2    -51.8405409 -0.663872E-01  0.332E+00    3.30       1.0  T
   3    -51.8375556  0.298530E-02  0.152E+00    3.42       1.0  T
   4    -51.8528948 -0.153392E-01  0.470E-01    3.29       1.0  T
   5    -51.8550895 -0.219472E-02  0.210E-01    3.33       1.0  T
   6    -51.8552136 -0.124019E-03  0.116E-01    3.31       1.0  T
   7    -51.8552642 -0.506349E-04  0.554E-02    3.31       1.0  T
   8    -51.8552810 -0.168104E-04  0.245E-02    3.32       1.0  T
   9    -51.8552835 -0.253678E-05  0.672E-03    3.32       2.8  T
  10    -51.8552837 -0.167876E-06  0.357E-03    3.32       5.3  T
  11    -51.8552838 -0.103772E-06  0.155E-03    3.32      12.2  T
  12    -51.8552838 -0.549032E-08  0.398E-04    3.32      47.5  T
  13    -51.8552838 -0.641450E-09  0.155E-04    3.32     122.1  T
  14    -51.8552838 -0.907576E-10  0.743E-05    3.32     254.3  T

   *** convergence criteria satisfied after 14 iterations ***

         #    Occupation            Energy/Eh            Energy/eV
      -------------------------------------------------------------
         1        2.0000           -0.7948917             -21.6301
       ...           ...                  ...                  ...
        39        2.0000           -0.4433712             -12.0647
        40        2.0000           -0.4369551             -11.8902
        41        2.0000           -0.4262175             -11.5980
        42        2.0000           -0.4234836             -11.5236
        43        2.0000           -0.4219943             -11.4831
        44        2.0000           -0.4145146             -11.2795
        45        2.0000           -0.3771720             -10.2634 (HOMO)
        46                         -0.2553047              -6.9472 (LUMO)
        47                         -0.2446334              -6.6568
        48                         -0.2390846              -6.5058
        49                         -0.1843284              -5.0158
        50                         -0.1303284              -3.5464
       ...                                ...                  ...
        84                          1.1692163              31.8160
      -------------------------------------------------------------
                  HL-Gap            0.1218674 Eh            3.3162 eV
             Fermi-level           -0.3162383 Eh           -8.6053 eV

 SCC (total)                   0 d,  0 h,  0 min,  0.022 sec
 SCC setup                      ...        0 min,  0.000 sec (  2.102%)
 Dispersion                     ...        0 min,  0.000 sec (  0.582%)
 classical contributions        ...        0 min,  0.000 sec (  0.214%)
 integral evaluation            ...        0 min,  0.002 sec ( 11.056%)
 iterations                     ...        0 min,  0.011 sec ( 51.236%)
 molecular gradient             ...        0 min,  0.007 sec ( 34.045%)
 printout                       ...        0 min,  0.000 sec (  0.720%)

         :::::::::::::::::::::::::::::::::::::::::::::::::::::
         ::                     SUMMARY                     ::
         :::::::::::::::::::::::::::::::::::::::::::::::::::::
         :: total energy             -51.225378978724 Eh    ::
         :: total w/o Gsasa/hb       -51.215861347454 Eh    ::
         :: gradient norm              0.050288613235 Eh/a0 ::
         :: HOMO-LUMO gap              3.316180374497 eV    ::
         ::.................................................::
         :: SCC energy               -51.854875194839 Eh    ::
         :: -> isotropic ES            0.125077186857 Eh    ::
         :: -> anisotropic ES         -0.018382206597 Eh    ::
         :: -> anisotropic XC          0.021831181066 Eh    ::
         :: -> dispersion             -0.030954701379 Eh    ::
         :: -> Gsolv                  -0.043570430661 Eh    ::
         ::    -> Gelec               -0.034052799391 Eh    ::
         ::    -> Gsasa               -0.000880358442 Eh    ::
         ::    -> Ghb                 -0.009718032526 Eh    ::
         ::    -> Gshift               0.001080759698 Eh    ::
         :: repulsion energy           0.629496216115 Eh    ::
         :: add. restraining           0.000000000000 Eh    ::
         :: total charge               0.000000000000 e     ::
         :::::::::::::::::::::::::::::::::::::::::::::::::::::

      ----------------------------------------------------------- 
     |                   =====================                   |
     |                        A N C O P T                        |
     |                   =====================                   |
     |               Approximate Normal Coordinate               |
     |                Rational Function Optimizer                |
      ----------------------------------------------------------- 

Optimization log is written to '/dev/null'
      ----------------------------------------------------------- 
     |                   =====================                   |
     |                        A N C O P T                        |
     |                   =====================                   |
     |               Approximate Normal Coordinate               |
     |                Rational Function Optimizer                |
      ----------------------------------------------------------- 

          ...................................................
          :                      SETUP                      :
          :.................................................:
          :   optimization level             tight          :
          :   max. optcycles                   200          :
          :   ANC micro-cycles                  20          :
          :   degrees of freedom                78          :
          :.................................................:
          :   RF solver                   davidson          :
          :   write xtbopt.log                true          :
          :   linear?                        false          :
          :   energy convergence         0.1000000E-05 Eh   :
          :   grad. convergence          0.8000000E-03 Eh/α :
          :   maxmium RF displ.          1.0000000          :
          :   Hlow (freq-cutoff)         0.1000000E-01      :
          :   Hmax (freq-cutoff)         5.0000000          :
          :   S6 in model hess.         20.0000000          :
          ...................................................

generating ANC from exact Hessian ...
Using Lindh-Hessian (1995)
 Shifting diagonal of input Hessian by    9.5655279580779753E-003
 Lowest  eigenvalues of input Hessian
    0.000000    0.000000    0.000000    0.000000    0.000000    0.000000
    0.010000    0.011237    0.011380    0.012950    0.015604    0.016662
    0.021268    0.023190    0.024922    0.026314    0.028263    0.031447
 Highest eigenvalues
    1.985918    1.991522    2.100785    2.134614    2.607078    3.528127


........................................................................
.............................. CYCLE    1 ..............................
........................................................................

 iter      E             dE          RMSdq      gap      omega  full diag
   1    -51.8552838 -0.518553E+02  0.184E-05    3.32       0.0  T
   2    -51.8552838 -0.135003E-11  0.113E-05    3.32    1671.5  T
   3    -51.8552838 -0.220268E-12  0.706E-06    3.32    2676.8  T
     SCC iter.                  ...        0 min,  0.003 sec
     gradient                   ...        0 min,  0.007 sec
 * total energy  :   -51.2253790 Eh     change       -0.2643930E-10 Eh
   gradient norm :     0.0502885 Eh/α   predicted     0.0000000E+00 (-100.00%)
   displ. norm   :     0.1253796 α      lambda       -0.3093468E-02
   maximum displ.:     0.0494300 α      in ANC's #6, #38, #19, ...

........................................................................
.............................. CYCLE    2 ..............................
........................................................................

 iter      E             dE          RMSdq      gap      omega  full diag
   1    -51.8681837 -0.518682E+02  0.128E-01    3.36       0.0  T
   2    -51.8682414 -0.576905E-04  0.711E-02    3.38       1.0  T
   3    -51.8682426 -0.121572E-05  0.327E-02    3.38       1.0  T
   4    -51.8682479 -0.531675E-05  0.943E-03    3.38       2.0  T
   5    -51.8682487 -0.799822E-06  0.281E-03    3.38       6.7  T
   6    -51.8682488 -0.765184E-07  0.137E-03    3.38      13.8  T
   7    -51.8682488 -0.759958E-08  0.586E-04    3.38      32.3  T
   8    -51.8682488 -0.226824E-08  0.279E-04    3.38      67.7  T
   9    -51.8682488 -0.279584E-09  0.970E-05    3.38     194.8  T
  10    -51.8682488 -0.404938E-10  0.481E-05    3.38     392.9  T
     SCC iter.                  ...        0 min,  0.008 sec
     gradient                   ...        0 min,  0.007 sec
 * total energy  :   -51.2276478 Eh     change       -0.2268825E-02 Eh
   gradient norm :     0.0269320 Eh/α   predicted    -0.1571102E-02 ( -30.75%)
   displ. norm   :     0.1544805 α      lambda       -0.1792855E-02
   maximum displ.:     0.0869621 α      in ANC's #6, #3, #19, ...

........................................................................
.............................. CYCLE    3 ..............................
........................................................................

 iter      E             dE          RMSdq      gap      omega  full diag
   1    -51.8748383 -0.518748E+02  0.138E-01    3.42       0.0  T
   2    -51.8749225 -0.841894E-04  0.731E-02    3.44       1.0  T
   3    -51.8749287 -0.622808E-05  0.356E-02    3.43       1.0  T
   4    -51.8749336 -0.490273E-05  0.112E-02    3.44       1.7  T
   5    -51.8749342 -0.543440E-06  0.419E-03    3.44       4.5  T
   6    -51.8749343 -0.117490E-06  0.181E-03    3.43      10.4  T
   7    -51.8749343 -0.148242E-07  0.867E-04    3.44      21.8  T
   8    -51.8749343 -0.472512E-08  0.399E-04    3.44      47.4  T
   9    -51.8749343 -0.609525E-09  0.122E-04    3.44     155.4  T
  10    -51.8749343 -0.551097E-10  0.626E-05    3.44     302.0  T
     SCC iter.                  ...        0 min,  0.008 sec
     gradient                   ...        0 min,  0.007 sec
 * total energy  :   -51.2286784 Eh     change       -0.1030552E-02 Eh
   gradient norm :     0.0102281 Eh/α   predicted    -0.9178720E-03 ( -10.93%)
   displ. norm   :     0.0844448 α      lambda       -0.2682791E-03
   maximum displ.:     0.0528646 α      in ANC's #6, #3, #37, ...

........................................................................
.............................. CYCLE    4 ..............................
........................................................................

 iter      E             dE          RMSdq      gap      omega  full diag
   1    -51.8735996 -0.518736E+02  0.515E-02    3.43       0.0  T
   2    -51.8736046 -0.504597E-05  0.261E-02    3.44       1.0  T
   3    -51.8736047 -0.939077E-07  0.108E-02    3.44       1.8  T
   4    -51.8736057 -0.963153E-06  0.402E-03    3.44       4.7  T
   5    -51.8736057 -0.222536E-07  0.158E-03    3.44      11.9  T
   6    -51.8736057 -0.203457E-07  0.493E-04    3.44      38.3  T
   7    -51.8736057 -0.126887E-08  0.230E-04    3.44      82.0  T
   8    -51.8736057 -0.238082E-09  0.872E-05    3.44     216.7  T
   9    -51.8736057 -0.230784E-10  0.330E-05    3.44     571.8  T
     SCC iter.                  ...        0 min,  0.007 sec
     gradient                   ...        0 min,  0.007 sec
 * total energy  :   -51.2288875 Eh     change       -0.2091834E-03 Eh
   gradient norm :     0.0086710 Eh/α   predicted    -0.1350995E-03 ( -35.42%)
   displ. norm   :     0.1595170 α      lambda       -0.3388828E-03
   maximum displ.:     0.1004850 α      in ANC's #6, #3, #1, ...

........................................................................
.............................. CYCLE    5 ..............................
........................................................................

 iter      E             dE          RMSdq      gap      omega  full diag
   1    -51.8710023 -0.518710E+02  0.829E-02    3.42       0.0  T
   2    -51.8710080 -0.571409E-05  0.413E-02    3.43       1.0  T
   3    -51.8710075  0.483515E-06  0.142E-02    3.43       1.3  T
   4    -51.8710094 -0.183657E-05  0.634E-03    3.43       3.0  T
   5    -51.8710095 -0.100544E-06  0.176E-03    3.43      10.7  T
   6    -51.8710095 -0.244413E-07  0.643E-04    3.43      29.4  T
   7    -51.8710095 -0.200480E-08  0.252E-04    3.43      74.9  T
   8    -51.8710095 -0.167965E-09  0.996E-05    3.43     189.8  T
   9    -51.8710095 -0.286065E-10  0.350E-05    3.43     540.1  T
     SCC iter.                  ...        0 min,  0.007 sec
     gradient                   ...        0 min,  0.008 sec
 * total energy  :   -51.2291037 Eh     change       -0.2161155E-03 Eh
   gradient norm :     0.0064786 Eh/α   predicted    -0.1737584E-03 ( -19.60%)
   displ. norm   :     0.0965157 α      lambda       -0.1041668E-03
   maximum displ.:     0.0578759 α      in ANC's #6, #3, #1, ...

........................................................................
.............................. CYCLE    6 ..............................
........................................................................

 iter      E             dE          RMSdq      gap      omega  full diag
   1    -51.8710673 -0.518711E+02  0.428E-02    3.41       0.0  T
   2    -51.8710699 -0.253731E-05  0.219E-02    3.42       1.0  T
   3    -51.8710697  0.122033E-06  0.883E-03    3.42       2.1  T
   4    -51.8710704 -0.634242E-06  0.320E-03    3.42       5.9  T
   5    -51.8710704 -0.412765E-07  0.117E-03    3.42      16.1  T
   6    -51.8710704 -0.722645E-08  0.410E-04    3.42      46.1  T
   7    -51.8710704 -0.102214E-08  0.171E-04    3.42     110.8  T
   8    -51.8710704 -0.556923E-10  0.709E-05    3.42     266.4  T
     SCC iter.                  ...        0 min,  0.007 sec
     gradient                   ...        0 min,  0.008 sec
 * total energy  :   -51.2291795 Eh     change       -0.7581073E-04 Eh
   gradient norm :     0.0045633 Eh/α   predicted    -0.5266191E-04 ( -30.54%)
   displ. norm   :     0.0987427 α      lambda       -0.7950675E-04
   maximum displ.:     0.0539228 α      in ANC's #3, #6, #1, ...

........................................................................
.............................. CYCLE    7 ..............................
........................................................................

 iter      E             dE          RMSdq      gap      omega  full diag
   1    -51.8724675 -0.518725E+02  0.388E-02    3.41       0.0  T
   2    -51.8724714 -0.393194E-05  0.212E-02    3.41       1.0  T
   3    -51.8724717 -0.245672E-06  0.109E-02    3.41       1.7  T
   4    -51.8724724 -0.691356E-06  0.259E-03    3.41       7.3  T
   5    -51.8724724 -0.390542E-07  0.121E-03    3.41      15.6  T
   6    -51.8724724 -0.813505E-08  0.461E-04    3.41      41.0  T
   7    -51.8724724 -0.963304E-09  0.185E-04    3.41     102.0  T
   8    -51.8724724 -0.760139E-10  0.773E-05    3.41     244.6  T
     SCC iter.                  ...        0 min,  0.006 sec
     gradient                   ...        0 min,  0.008 sec
 * total energy  :   -51.2292330 Eh     change       -0.5350544E-04 Eh
   gradient norm :     0.0031361 Eh/α   predicted    -0.4015326E-04 ( -24.95%)
   displ. norm   :     0.0706461 α      lambda       -0.3637475E-04
   maximum displ.:     0.0381715 α      in ANC's #3, #1, #6, ...

........................................................................
.............................. CYCLE    8 ..............................
........................................................................

 iter      E             dE          RMSdq      gap      omega  full diag
   1    -51.8737421 -0.518737E+02  0.251E-02    3.41       0.0  T
   2    -51.8737438 -0.165488E-05  0.144E-02    3.41       1.3  T
   3    -51.8737439 -0.127012E-06  0.773E-03    3.41       2.4  T
   4    -51.8737443 -0.343525E-06  0.139E-03    3.41      13.6  T
   5    -51.8737443 -0.184463E-07  0.661E-04    3.41      28.6  T
   6    -51.8737443 -0.140415E-08  0.284E-04    3.41      66.6  T
   7    -51.8737443 -0.475666E-09  0.105E-04    3.41     180.2  T
   8    -51.8737443 -0.178204E-10  0.437E-05    3.41     432.0  T
     SCC iter.                  ...        0 min,  0.007 sec
     gradient                   ...        0 min,  0.008 sec
 * total energy  :   -51.2292597 Eh     change       -0.2668128E-04 Eh
   gradient norm :     0.0030992 Eh/α   predicted    -0.1830044E-04 ( -31.41%)
   displ. norm   :     0.0848960 α      lambda       -0.3406529E-04
   maximum displ.:     0.0488891 α      in ANC's #1, #3, #2, ...

........................................................................
.............................. CYCLE    9 ..............................
........................................................................

 iter      E             dE          RMSdq      gap      omega  full diag
   1    -51.8746983 -0.518747E+02  0.284E-02    3.41       0.0  T
   2    -51.8746996 -0.134740E-05  0.162E-02    3.41       1.2  T
   3    -51.8746995  0.155124E-06  0.788E-03    3.41       2.4  T
   4    -51.8747001 -0.572555E-06  0.159E-03    3.41      11.9  T
   5    -51.8747001 -0.160389E-07  0.690E-04    3.41      27.4  T
   6    -51.8747001 -0.103690E-08  0.272E-04    3.41      69.6  T
   7    -51.8747001 -0.534229E-09  0.108E-04    3.41     174.4  T
   8    -51.8747001 -0.296012E-10  0.437E-05    3.41     432.4  T
     SCC iter.                  ...        0 min,  0.006 sec
     gradient                   ...        0 min,  0.008 sec
 * total energy  :   -51.2292853 Eh     change       -0.2568686E-04 Eh
   gradient norm :     0.0032278 Eh/α   predicted    -0.1715765E-04 ( -33.20%)
   displ. norm   :     0.1118491 α      lambda       -0.3738431E-04
   maximum displ.:     0.0667837 α      in ANC's #1, #3, #2, ...

........................................................................
.............................. CYCLE   10 ..............................
........................................................................

 iter      E             dE          RMSdq      gap      omega  full diag
   1    -51.8750556 -0.518751E+02  0.359E-02    3.41       0.0  T
   2    -51.8750569 -0.124764E-05  0.204E-02    3.41       1.0  T
   3    -51.8750565  0.374294E-06  0.755E-03    3.42       2.5  T
   4    -51.8750573 -0.753994E-06  0.206E-03    3.42       9.2  T
   5    -51.8750573 -0.246379E-07  0.732E-04    3.42      25.8  T
   6    -51.8750573 -0.852800E-09  0.275E-04    3.42      68.8  T
   7    -51.8750573 -0.348116E-09  0.115E-04    3.42     164.1  T
   8    -51.8750573 -0.794813E-10  0.522E-05    3.42     362.2  T
     SCC iter.                  ...        0 min,  0.006 sec
     gradient                   ...        0 min,  0.007 sec
 * total energy  :   -51.2293126 Eh     change       -0.2722156E-04 Eh
   gradient norm :     0.0031369 Eh/α   predicted    -0.1892888E-04 ( -30.46%)
   displ. norm   :     0.1082765 α      lambda       -0.3184172E-04
   maximum displ.:     0.0674692 α      in ANC's #1, #2, #3, ...

........................................................................
.............................. CYCLE   11 ..............................
........................................................................

 iter      E             dE          RMSdq      gap      omega  full diag
   1    -51.8748245 -0.518748E+02  0.336E-02    3.42       0.0  T
   2    -51.8748252 -0.727673E-06  0.190E-02    3.42       1.0  T
   3    -51.8748252 -0.703601E-09  0.431E-03    3.42       4.4  T
   4    -51.8748254 -0.186539E-06  0.190E-03    3.42      10.0  T
   5    -51.8748254 -0.270179E-07  0.631E-04    3.42      29.9  T
   6    -51.8748254 -0.115700E-08  0.273E-04    3.42      69.2  T
   7    -51.8748254 -0.468795E-09  0.857E-05    3.42     220.4  T
   8    -51.8748254 -0.268727E-10  0.439E-05    3.42     430.9  T
     SCC iter.                  ...        0 min,  0.006 sec
     gradient                   ...        0 min,  0.007 sec
 * total energy  :   -51.2293360 Eh     change       -0.2340582E-04 Eh
   gradient norm :     0.0024810 Eh/α   predicted    -0.1610911E-04 ( -31.17%)
   displ. norm   :     0.1110537 α      lambda       -0.2543010E-04
   maximum displ.:     0.0694347 α      in ANC's #1, #2, #3, ...

........................................................................
.............................. CYCLE   12 ..............................
........................................................................

 iter      E             dE          RMSdq      gap      omega  full diag
   1    -51.8741441 -0.518741E+02  0.337E-02    3.42       0.0  T
   2    -51.8741447 -0.652211E-06  0.193E-02    3.42       1.0  T
   3    -51.8741447 -0.171951E-08  0.442E-03    3.42       4.3  T
   4    -51.8741449 -0.209893E-06  0.147E-03    3.42      12.8  T
   5    -51.8741449 -0.745332E-08  0.658E-04    3.42      28.7  T
   6    -51.8741449 -0.133247E-08  0.217E-04    3.42      87.0  T
   7    -51.8741449 -0.545405E-09  0.753E-05    3.42     250.9  T
   8    -51.8741449 -0.239098E-10  0.338E-05    3.42     559.1  T
     SCC iter.                  ...        0 min,  0.007 sec
     gradient                   ...        0 min,  0.007 sec
 * total energy  :   -51.2293537 Eh     change       -0.1774784E-04 Eh
   gradient norm :     0.0021812 Eh/α   predicted    -0.1287334E-04 ( -27.47%)
   displ. norm   :     0.0775746 α      lambda       -0.1657586E-04
   maximum displ.:     0.0498741 α      in ANC's #1, #2, #6, ...

........................................................................
.............................. CYCLE   13 ..............................
........................................................................

 iter      E             dE          RMSdq      gap      omega  full diag
   1    -51.8740294 -0.518740E+02  0.225E-02    3.42       0.0  T
   2    -51.8740298 -0.448725E-06  0.128E-02    3.42       1.5  T
   3    -51.8740297  0.138480E-06  0.470E-03    3.42       4.0  T
   4    -51.8740300 -0.273666E-06  0.111E-03    3.42      17.0  T
   5    -51.8740300 -0.492473E-08  0.524E-04    3.42      36.0  T
   6    -51.8740300 -0.927962E-09  0.157E-04    3.42     120.4  T
   7    -51.8740300 -0.220886E-09  0.640E-05    3.42     295.4  T
     SCC iter.                  ...        0 min,  0.005 sec
     gradient                   ...        0 min,  0.007 sec
 * total energy  :   -51.2293647 Eh     change       -0.1102255E-04 Eh
   gradient norm :     0.0019470 Eh/α   predicted    -0.8341685E-05 ( -24.32%)
   displ. norm   :     0.1208075 α      lambda       -0.1254166E-04
   maximum displ.:     0.0767157 α      in ANC's #1, #2, #3, ...

........................................................................
.............................. CYCLE   14 ..............................
........................................................................

 iter      E             dE          RMSdq      gap      omega  full diag
   1    -51.8734539 -0.518735E+02  0.372E-02    3.42       0.0  T
   2    -51.8734548 -0.979291E-06  0.209E-02    3.42       1.0  T
   3    -51.8734546  0.189231E-06  0.602E-03    3.42       3.1  T
   4    -51.8734551 -0.489809E-06  0.210E-03    3.42       9.0  T
   5    -51.8734552 -0.198117E-07  0.693E-04    3.42      27.3  T
   6    -51.8734552 -0.187156E-08  0.248E-04    3.42      76.2  T
   7    -51.8734552 -0.367116E-09  0.101E-04    3.42     186.7  T
   8    -51.8734552 -0.363585E-10  0.425E-05    3.42     444.8  T
     SCC iter.                  ...        0 min,  0.006 sec
     gradient                   ...        0 min,  0.007 sec
 * total energy  :   -51.2293719 Eh     change       -0.7145681E-05 Eh
   gradient norm :     0.0024002 Eh/α   predicted    -0.6316583E-05 ( -11.60%)
   displ. norm   :     0.0242351 α      lambda       -0.9887437E-05
   maximum displ.:     0.0152947 α      in ANC's #3, #6, #9, ...

........................................................................
.............................. CYCLE   15 ..............................
........................................................................

 iter      E             dE          RMSdq      gap      omega  full diag
   1    -51.8742135 -0.518742E+02  0.848E-03    3.42       0.0  T
   2    -51.8742136 -0.930304E-07  0.487E-03    3.42       3.9  T
   3    -51.8742136  0.167250E-07  0.215E-03    3.42       8.8  T
   4    -51.8742136 -0.462108E-07  0.563E-04    3.42      33.5  T
   5    -51.8742136 -0.102781E-08  0.229E-04    3.42      82.4  T
   6    -51.8742136 -0.408555E-09  0.781E-05    3.42     242.0  T
   7    -51.8742136 -0.280309E-10  0.379E-05    3.42     498.7  T
     SCC iter.                  ...        0 min,  0.006 sec
     gradient                   ...        0 min,  0.007 sec
 * total energy  :   -51.2293779 Eh     change       -0.5980712E-05 Eh
   gradient norm :     0.0015165 Eh/α   predicted    -0.4947110E-05 ( -17.28%)
   displ. norm   :     0.0205879 α      lambda       -0.4510998E-05
   maximum displ.:     0.0102019 α      in ANC's #4, #3, #1, ...

........................................................................
.............................. CYCLE   16 ..............................
........................................................................

 iter      E             dE          RMSdq      gap      omega  full diag
   1    -51.8746309 -0.518746E+02  0.930E-03    3.42       0.0  T
   2    -51.8746311 -0.213383E-06  0.534E-03    3.42       3.5  T
   3    -51.8746311 -0.136747E-07  0.297E-03    3.42       6.4  T
   4    -51.8746311 -0.405272E-07  0.673E-04    3.42      28.1  T
   5    -51.8746311 -0.427918E-08  0.239E-04    3.42      78.9  T
   6    -51.8746311 -0.233591E-09  0.976E-05    3.42     193.7  T
   7    -51.8746311 -0.798863E-10  0.363E-05    3.42     520.7  T
     SCC iter.                  ...        0 min,  0.006 sec
     gradient                   ...        0 min,  0.007 sec
 * total energy  :   -51.2293819 Eh     change       -0.3996278E-05 Eh
   gradient norm :     0.0009900 Eh/α   predicted    -0.2257656E-05 ( -43.51%)
   displ. norm   :     0.0276900 α      lambda       -0.1954354E-05
   maximum displ.:     0.0187754 α      in ANC's #1, #2, #6, ...

........................................................................
.............................. CYCLE   17 ..............................
........................................................................

 iter      E             dE          RMSdq      gap      omega  full diag
   1    -51.8745838 -0.518746E+02  0.623E-03    3.42       0.0  T
   2    -51.8745839 -0.460725E-07  0.348E-03    3.42       5.4  T
   3    -51.8745839  0.878404E-08  0.130E-03    3.42      14.6  T
   4    -51.8745839 -0.180274E-07  0.452E-04    3.42      41.8  T
   5    -51.8745839 -0.142558E-08  0.142E-04    3.42     132.9  T
   6    -51.8745839 -0.522675E-10  0.556E-05    3.42     339.6  T
     SCC iter.                  ...        0 min,  0.005 sec
     gradient                   ...        0 min,  0.008 sec
 * total energy  :   -51.2293840 Eh     change       -0.2156113E-05 Eh
   gradient norm :     0.0006048 Eh/α   predicted    -0.9781658E-06 ( -54.63%)
   displ. norm   :     0.0433600 α      lambda       -0.2249064E-05
   maximum displ.:     0.0294514 α      in ANC's #1, #2, #4, ...

........................................................................
.............................. CYCLE   18 ..............................
........................................................................

 iter      E             dE          RMSdq      gap      omega  full diag
   1    -51.8742393 -0.518742E+02  0.101E-02    3.42       0.0  T
   2    -51.8742393 -0.848109E-07  0.562E-03    3.42       3.4  T
   3    -51.8742393  0.123337E-07  0.172E-03    3.42      11.0  T
   4    -51.8742394 -0.314275E-07  0.592E-04    3.42      31.9  T
   5    -51.8742394 -0.124642E-08  0.183E-04    3.42     103.0  T
   6    -51.8742394 -0.242551E-09  0.883E-05    3.42     214.1  T
     SCC iter.                  ...        0 min,  0.005 sec
     gradient                   ...        0 min,  0.008 sec
 * total energy  :   -51.2293862 Eh     change       -0.2191445E-05 Eh
   gradient norm :     0.0009389 Eh/α   predicted    -0.1129004E-05 ( -48.48%)
   displ. norm   :     0.0449736 α      lambda       -0.2128705E-05
   maximum displ.:     0.0296718 α      in ANC's #1, #2, #4, ...

........................................................................
.............................. CYCLE   19 ..............................
........................................................................

 iter      E             dE          RMSdq      gap      omega  full diag
   1    -51.8741394 -0.518741E+02  0.114E-02    3.42       0.0  T
   2    -51.8741394 -0.603693E-07  0.653E-03    3.42       2.9  T
   3    -51.8741394  0.156541E-07  0.159E-03    3.42      11.9  T
   4    -51.8741394 -0.306419E-07  0.454E-04    3.42      41.7  T
   5    -51.8741394 -0.516444E-09  0.147E-04    3.42     129.0  T
   6    -51.8741394 -0.127848E-09  0.692E-05    3.42     273.2  T
     SCC iter.                  ...        0 min,  0.005 sec
     gradient                   ...        0 min,  0.007 sec
 * total energy  :   -51.2293884 Eh     change       -0.2217330E-05 Eh
   gradient norm :     0.0007765 Eh/α   predicted    -0.1069719E-05 ( -51.76%)
   displ. norm   :     0.0413880 α      lambda        0.2543089E-06
   maximum displ.:     0.0272854 α      in ANC's #1, #2, #4, ...

........................................................................
.............................. CYCLE   20 ..............................
........................................................................

 iter      E             dE          RMSdq      gap      omega  full diag
   1    -51.8740247 -0.518740E+02  0.105E-02    3.42       0.0  T
   2    -51.8740248 -0.533743E-07  0.601E-03    3.42       3.1  T
   3    -51.8740248  0.139939E-07  0.150E-03    3.42      12.6  T
   4    -51.8740248 -0.271821E-07  0.425E-04    3.42      44.5  T
   5    -51.8740248 -0.447073E-09  0.138E-04    3.42     137.0  T
   6    -51.8740248 -0.115399E-09  0.647E-05    3.42     292.0  T
     SCC iter.                  ...        0 min,  0.005 sec
     gradient                   ...        0 min,  0.008 sec
 * total energy  :   -51.2293886 Eh     change       -0.1710990E-06 Eh
   gradient norm :     0.0013845 Eh/α   predicted     0.1228220E-06 (-171.78%)
   displ. norm   :     0.0191024 α      lambda       -0.2148184E-05
   maximum displ.:     0.0114968 α      in ANC's #1, #6, #4, ...
 * RMSD in coord.:     0.2218032 α      energy gain  -0.4009616E-02 Eh

generating ANC from exact Hessian ...
Using Lindh-Hessian (1995)
 Shifting diagonal of input Hessian by    9.5441432026466405E-003
 Lowest  eigenvalues of input Hessian
    0.000000    0.000000    0.000000    0.000000    0.000000    0.000000
    0.010000    0.011159    0.011441    0.013096    0.015848    0.016469
    0.021444    0.023865    0.024729    0.026047    0.029369    0.032051
 Highest eigenvalues
    1.999705    2.044359    2.164081    2.195728    2.619177    3.385521


........................................................................
.............................. CYCLE   21 ..............................
........................................................................

 iter      E             dE          RMSdq      gap      omega  full diag
   1    -51.8740588 -0.518741E+02  0.510E-03    3.42       0.0  T
   2    -51.8740588 -0.108959E-07  0.295E-03    3.42       6.4  T
   3    -51.8740588  0.404761E-08  0.665E-04    3.42      28.4  T
   4    -51.8740588 -0.664144E-08  0.227E-04    3.42      83.3  T
   5    -51.8740588 -0.297838E-09  0.735E-05    3.42     257.2  T
   6    -51.8740588 -0.269651E-10  0.313E-05    3.42     603.2  T
     SCC iter.                  ...        0 min,  0.005 sec
     gradient                   ...        0 min,  0.007 sec
 * total energy  :   -51.2293913 Eh     change       -0.2664448E-05 Eh
   gradient norm :     0.0008231 Eh/α   predicted     0.0000000E+00 (-100.00%)
   displ. norm   :     0.0122110 α      lambda       -0.5216111E-06
   maximum displ.:     0.0088651 α      in ANC's #1, #6, #3, ...

........................................................................
.............................. CYCLE   22 ..............................
........................................................................

 iter      E             dE          RMSdq      gap      omega  full diag
   1    -51.8742724 -0.518743E+02  0.358E-03    3.42       0.0  T
   2    -51.8742724 -0.215650E-07  0.203E-03    3.42       9.3  T
   3    -51.8742724  0.211143E-08  0.875E-04    3.42      21.6  T
   4    -51.8742724 -0.703776E-08  0.247E-04    3.42      76.5  T
   5    -51.8742725 -0.216474E-09  0.831E-05    3.42     227.5  T
   6    -51.8742725 -0.670539E-10  0.322E-05    3.42     587.0  T
     SCC iter.                  ...        0 min,  0.005 sec
     gradient                   ...        0 min,  0.008 sec
 * total energy  :   -51.2293931 Eh     change       -0.1807110E-05 Eh
   gradient norm :     0.0004022 Eh/α   predicted    -0.7511601E-06 ( -58.43%)
   displ. norm   :     0.0299336 α      lambda       -0.2298577E-05
   maximum displ.:     0.0212135 α      in ANC's #1, #6, #3, ...

........................................................................
.............................. CYCLE   23 ..............................
........................................................................

 iter      E             dE          RMSdq      gap      omega  full diag
   1    -51.8743741 -0.518744E+02  0.772E-03    3.42       0.0  T
   2    -51.8743741 -0.600753E-07  0.429E-03    3.42       4.4  T
   3    -51.8743741  0.307800E-08  0.136E-03    3.42      13.9  T
   4    -51.8743742 -0.130433E-07  0.515E-04    3.42      36.7  T
   5    -51.8743742 -0.158641E-08  0.141E-04    3.42     134.1  T
   6    -51.8743742 -0.847393E-10  0.644E-05    3.42     293.5  T
     SCC iter.                  ...        0 min,  0.005 sec
     gradient                   ...        0 min,  0.007 sec
 * total energy  :   -51.2293955 Eh     change       -0.2411466E-05 Eh
   gradient norm :     0.0004280 Eh/α   predicted    -0.1149897E-05 ( -52.32%)
   displ. norm   :     0.0273490 α      lambda       -0.1201338E-05
   maximum displ.:     0.0200847 α      in ANC's #1, #3, #6, ...

........................................................................
.............................. CYCLE   24 ..............................
........................................................................

 iter      E             dE          RMSdq      gap      omega  full diag
   1    -51.8743667 -0.518744E+02  0.701E-03    3.42       0.0  T
   2    -51.8743667 -0.160737E-07  0.396E-03    3.42       4.8  T
   3    -51.8743667 -0.165620E-09  0.750E-04    3.42      25.2  T
   4    -51.8743667 -0.233239E-08  0.349E-04    3.42      54.1  T
   5    -51.8743667 -0.142161E-08  0.884E-05    3.42     213.7  T
   6    -51.8743667 -0.352927E-10  0.377E-05    3.42     501.5  T
     SCC iter.                  ...        0 min,  0.005 sec
     gradient                   ...        0 min,  0.008 sec
 * total energy  :   -51.2293969 Eh     change       -0.1470783E-05 Eh
   gradient norm :     0.0005517 Eh/α   predicted    -0.6140099E-06 ( -58.25%)
   displ. norm   :     0.0297775 α      lambda       -0.1234310E-05
   maximum displ.:     0.0211596 α      in ANC's #1, #3, #6, ...

........................................................................
.............................. CYCLE   25 ..............................
........................................................................

 iter      E             dE          RMSdq      gap      omega  full diag
   1    -51.8743395 -0.518743E+02  0.825E-03    3.42       0.0  T
   2    -51.8743395 -0.148665E-07  0.471E-03    3.42       4.0  T
   3    -51.8743395  0.514235E-08  0.842E-04    3.42      22.4  T
   4    -51.8743395 -0.834150E-08  0.337E-04    3.42      56.1  T
   5    -51.8743395 -0.102555E-08  0.892E-05    3.42     211.8  T
   6    -51.8743395 -0.700169E-10  0.373E-05    3.42     506.8  T
     SCC iter.                  ...        0 min,  0.005 sec
     gradient                   ...        0 min,  0.007 sec
 * total energy  :   -51.2293986 Eh     change       -0.1605646E-05 Eh
   gradient norm :     0.0004763 Eh/α   predicted    -0.6186955E-06 ( -61.47%)
   displ. norm   :     0.0375695 α      lambda       -0.1537415E-05
   maximum displ.:     0.0264957 α      in ANC's #1, #3, #6, ...

........................................................................
.............................. CYCLE   26 ..............................
........................................................................

 iter      E             dE          RMSdq      gap      omega  full diag
   1    -51.8742777 -0.518743E+02  0.109E-02    3.42       0.0  T
   2    -51.8742777 -0.255521E-07  0.627E-03    3.42       3.0  T
   3    -51.8742777  0.115208E-07  0.106E-03    3.42      17.8  T
   4    -51.8742777 -0.171341E-07  0.353E-04    3.42      53.5  T
   5    -51.8742777 -0.106942E-08  0.110E-04    3.42     172.3  T
   6    -51.8742777 -0.913545E-10  0.452E-05    3.42     418.0  T
     SCC iter.                  ...        0 min,  0.005 sec
     gradient                   ...        0 min,  0.008 sec
 * total energy  :   -51.2294005 Eh     change       -0.1970485E-05 Eh
   gradient norm :     0.0003184 Eh/α   predicted    -0.7699471E-06 ( -60.93%)
   displ. norm   :     0.0480363 α      lambda       -0.1714111E-05
   maximum displ.:     0.0334188 α      in ANC's #1, #3, #2, ...

........................................................................
.............................. CYCLE   27 ..............................
........................................................................

 iter      E             dE          RMSdq      gap      omega  full diag
   1    -51.8742467 -0.518742E+02  0.140E-02    3.42       0.0  T
   2    -51.8742467 -0.269927E-07  0.815E-03    3.42       2.3  T
   3    -51.8742467  0.761534E-08  0.963E-04    3.42      19.6  T
   4    -51.8742467 -0.139206E-07  0.360E-04    3.42      52.5  T
   5    -51.8742467 -0.134607E-08  0.114E-04    3.42     166.0  T
   6    -51.8742467 -0.525020E-10  0.495E-05    3.42     381.5  T
     SCC iter.                  ...        0 min,  0.005 sec
     gradient                   ...        0 min,  0.008 sec
 * total energy  :   -51.2294027 Eh     change       -0.2216239E-05 Eh
   gradient norm :     0.0003419 Eh/α   predicted    -0.8591163E-06 ( -61.24%)
   displ. norm   :     0.0612600 α      lambda       -0.1979203E-05
   maximum displ.:     0.0420916 α      in ANC's #1, #3, #2, ...

........................................................................
.............................. CYCLE   28 ..............................
........................................................................

 iter      E             dE          RMSdq      gap      omega  full diag
   1    -51.8742160 -0.518742E+02  0.177E-02    3.42       0.0  T
   2    -51.8742160 -0.286130E-07  0.103E-02    3.42       1.8  T
   3    -51.8742160  0.287126E-08  0.903E-04    3.42      20.9  T
   4    -51.8742160 -0.116924E-07  0.370E-04    3.42      51.0  T
   5    -51.8742160 -0.127325E-08  0.122E-04    3.42     154.5  T
   6    -51.8742160 -0.281020E-10  0.513E-05    3.42     368.6  T
     SCC iter.                  ...        0 min,  0.005 sec
     gradient                   ...        0 min,  0.008 sec
 * total energy  :   -51.2294054 Eh     change       -0.2654094E-05 Eh
   gradient norm :     0.0004861 Eh/α   predicted    -0.9931523E-06 ( -62.58%)
   displ. norm   :     0.0976861 α      lambda       -0.3035991E-05
   maximum displ.:     0.0659806 α      in ANC's #1, #3, #2, ...

........................................................................
.............................. CYCLE   29 ..............................
........................................................................

 iter      E             dE          RMSdq      gap      omega  full diag
   1    -51.8741776 -0.518742E+02  0.281E-02    3.42       0.0  T
   2    -51.8741777 -0.572722E-07  0.164E-02    3.42       1.2  T
   3    -51.8741777  0.266661E-08  0.129E-03    3.42      14.6  T
   4    -51.8741777 -0.257305E-07  0.495E-04    3.42      38.1  T
   5    -51.8741777 -0.122909E-08  0.167E-04    3.42     113.4  T
   6    -51.8741777 -0.614264E-10  0.709E-05    3.42     266.6  T
     SCC iter.                  ...        0 min,  0.005 sec
     gradient                   ...        0 min,  0.007 sec
 * total energy  :   -51.2294095 Eh     change       -0.4056976E-05 Eh
   gradient norm :     0.0006408 Eh/α   predicted    -0.1525871E-05 ( -62.39%)
   displ. norm   :     0.1406502 α      lambda       -0.4087914E-05
   maximum displ.:     0.0949631 α      in ANC's #1, #3, #2, ...

........................................................................
.............................. CYCLE   30 ..............................
........................................................................

 iter      E             dE          RMSdq      gap      omega  full diag
   1    -51.8741120 -0.518741E+02  0.401E-02    3.42       0.0  T
   2    -51.8741121 -0.107334E-06  0.235E-02    3.42       1.0  T
   3    -51.8741121  0.409594E-08  0.182E-03    3.42      10.4  T
   4    -51.8741121 -0.531160E-07  0.664E-04    3.42      28.5  T
   5    -51.8741121 -0.113430E-08  0.199E-04    3.42      95.1  T
   6    -51.8741121 -0.162125E-09  0.952E-05    3.42     198.6  T
     SCC iter.                  ...        0 min,  0.005 sec
     gradient                   ...        0 min,  0.008 sec
 * total energy  :   -51.2294148 Eh     change       -0.5320513E-05 Eh
   gradient norm :     0.0007405 Eh/α   predicted    -0.2062640E-05 ( -61.23%)
   displ. norm   :     0.1442167 α      lambda       -0.3945289E-05
   maximum displ.:     0.0986766 α      in ANC's #1, #3, #2, ...

........................................................................
.............................. CYCLE   31 ..............................
........................................................................

 iter      E             dE          RMSdq      gap      omega  full diag
   1    -51.8741125 -0.518741E+02  0.406E-02    3.42       0.0  T
   2    -51.8741126 -0.109019E-06  0.237E-02    3.42       1.0  T
   3    -51.8741126 -0.119336E-09  0.181E-03    3.42      10.5  T
   4    -51.8741126 -0.498649E-07  0.682E-04    3.42      27.7  T
   5    -51.8741126 -0.153297E-08  0.211E-04    3.42      89.7  T
   6    -51.8741126 -0.123563E-09  0.980E-05    3.42     192.9  T
   7    -51.8741126 -0.577955E-10  0.465E-05    3.42     406.4  T
     SCC iter.                  ...        0 min,  0.006 sec
     gradient                   ...        0 min,  0.007 sec
 * total energy  :   -51.2294201 Eh     change       -0.5288451E-05 Eh
   gradient norm :     0.0006732 Eh/α   predicted    -0.1992894E-05 ( -62.32%)
   displ. norm   :     0.1323939 α      lambda       -0.3679737E-05
   maximum displ.:     0.0919844 α      in ANC's #1, #3, #2, ...

........................................................................
.............................. CYCLE   32 ..............................
........................................................................

 iter      E             dE          RMSdq      gap      omega  full diag
   1    -51.8742073 -0.518742E+02  0.367E-02    3.42       0.0  T
   2    -51.8742074 -0.100248E-06  0.215E-02    3.42       1.0  T
   3    -51.8742074  0.610280E-08  0.184E-03    3.43      10.3  T
   4    -51.8742074 -0.477342E-07  0.694E-04    3.42      27.2  T
   5    -51.8742074 -0.311712E-08  0.237E-04    3.42      79.7  T
   6    -51.8742074 -0.936424E-10  0.950E-05    3.42     199.0  T
   7    -51.8742074 -0.486224E-10  0.471E-05    3.42     401.2  T
     SCC iter.                  ...        0 min,  0.006 sec
     gradient                   ...        0 min,  0.008 sec
 * total energy  :   -51.2294251 Eh     change       -0.5073725E-05 Eh
   gradient norm :     0.0004427 Eh/α   predicted    -0.1856386E-05 ( -63.41%)
   displ. norm   :     0.1288810 α      lambda       -0.3623174E-05
   maximum displ.:     0.0911307 α      in ANC's #1, #2, #3, ...

........................................................................
.............................. CYCLE   33 ..............................
........................................................................

 iter      E             dE          RMSdq      gap      omega  full diag
   1    -51.8742813 -0.518743E+02  0.350E-02    3.43       0.0  T
   2    -51.8742814 -0.987354E-07  0.204E-02    3.43       1.0  T
   3    -51.8742814  0.641471E-09  0.176E-03    3.43      10.8  T
   4    -51.8742814 -0.364715E-07  0.750E-04    3.43      25.2  T
   5    -51.8742815 -0.545836E-08  0.245E-04    3.43      77.0  T
   6    -51.8742815 -0.960512E-10  0.978E-05    3.43     193.3  T
   7    -51.8742815 -0.515428E-10  0.495E-05    3.43     382.2  T
     SCC iter.                  ...        0 min,  0.006 sec
     gradient                   ...        0 min,  0.007 sec
 * total energy  :   -51.2294303 Eh     change       -0.5193441E-05 Eh
   gradient norm :     0.0002610 Eh/α   predicted    -0.1827378E-05 ( -64.81%)
   displ. norm   :     0.1248911 α      lambda       -0.3688522E-05
   maximum displ.:     0.0894103 α      in ANC's #1, #2, #3, ...

........................................................................
.............................. CYCLE   34 ..............................
........................................................................

 iter      E             dE          RMSdq      gap      omega  full diag
   1    -51.8743547 -0.518744E+02  0.333E-02    3.43       0.0  T
   2    -51.8743548 -0.100145E-06  0.194E-02    3.43       1.0  T
   3    -51.8743548  0.572926E-08  0.186E-03    3.43      10.2  T
   4    -51.8743548 -0.394964E-07  0.781E-04    3.43      24.2  T
   5    -51.8743548 -0.636064E-08  0.250E-04    3.43      75.6  T
   6    -51.8743548 -0.112152E-09  0.996E-05    3.43     189.7  T
   7    -51.8743548 -0.468958E-10  0.506E-05    3.43     373.6  T
     SCC iter.                  ...        0 min,  0.005 sec
     gradient                   ...        0 min,  0.008 sec
 * total energy  :   -51.2294357 Eh     change       -0.5409775E-05 Eh
   gradient norm :     0.0003168 Eh/α   predicted    -0.1860424E-05 ( -65.61%)
   displ. norm   :     0.1146161 α      lambda       -0.3712385E-05
   maximum displ.:     0.0831744 α      in ANC's #1, #2, #3, ...

........................................................................
.............................. CYCLE   35 ..............................
........................................................................

 iter      E             dE          RMSdq      gap      omega  full diag
   1    -51.8744327 -0.518744E+02  0.296E-02    3.43       0.0  T
   2    -51.8744328 -0.856637E-07  0.172E-02    3.43       1.1  T
   3    -51.8744328  0.827610E-08  0.177E-03    3.43      10.7  T
   4    -51.8744329 -0.374901E-07  0.732E-04    3.43      25.8  T
   5    -51.8744329 -0.512958E-08  0.224E-04    3.43      84.3  T
   6    -51.8744329 -0.872689E-10  0.933E-05    3.43     202.5  T
   7    -51.8744329 -0.437410E-10  0.478E-05    3.43     395.5  T
     SCC iter.                  ...        0 min,  0.006 sec
     gradient                   ...        0 min,  0.008 sec
 * total energy  :   -51.2294411 Eh     change       -0.5393002E-05 Eh
   gradient norm :     0.0004750 Eh/α   predicted    -0.1871694E-05 ( -65.29%)
   displ. norm   :     0.1192818 α      lambda       -0.3869486E-05
   maximum displ.:     0.0865920 α      in ANC's #1, #2, #3, ...

........................................................................
.............................. CYCLE   36 ..............................
........................................................................

 iter      E             dE          RMSdq      gap      omega  full diag
   1    -51.8743985 -0.518744E+02  0.306E-02    3.43       0.0  T
   2    -51.8743986 -0.956708E-07  0.178E-02    3.43       1.1  T
   3    -51.8743986  0.112046E-07  0.187E-03    3.43      10.1  T
   4    -51.8743986 -0.460011E-07  0.755E-04    3.43      25.0  T
   5    -51.8743986 -0.446003E-08  0.225E-04    3.43      84.0  T
   6    -51.8743986 -0.869775E-10  0.992E-05    3.43     190.6  T
   7    -51.8743986 -0.608082E-10  0.492E-05    3.43     383.8  T
     SCC iter.                  ...        0 min,  0.005 sec
     gradient                   ...        0 min,  0.008 sec
 * total energy  :   -51.2294466 Eh     change       -0.5442777E-05 Eh
   gradient norm :     0.0005470 Eh/α   predicted    -0.1948427E-05 ( -64.20%)
   displ. norm   :     0.1318977 α      lambda       -0.4065827E-05
   maximum displ.:     0.0956283 α      in ANC's #1, #2, #3, ...

........................................................................
.............................. CYCLE   37 ..............................
........................................................................

 iter      E             dE          RMSdq      gap      omega  full diag
   1    -51.8743918 -0.518744E+02  0.339E-02    3.43       0.0  T
   2    -51.8743920 -0.118738E-06  0.198E-02    3.43       1.0  T
   3    -51.8743919  0.185946E-07  0.211E-03    3.43       8.9  T
   4    -51.8743920 -0.654342E-07  0.785E-04    3.43      24.1  T
   5    -51.8743920 -0.327685E-08  0.235E-04    3.43      80.6  T
   6    -51.8743920 -0.126114E-09  0.110E-04    3.43     171.7  T
   7    -51.8743920 -0.792824E-10  0.528E-05    3.43     358.0  T
     SCC iter.                  ...        0 min,  0.006 sec
     gradient                   ...        0 min,  0.008 sec
 * total energy  :   -51.2294523 Eh     change       -0.5693102E-05 Eh
   gradient norm :     0.0005553 Eh/α   predicted    -0.2050703E-05 ( -63.98%)
   displ. norm   :     0.1539490 α      lambda       -0.4417136E-05
   maximum displ.:     0.1113196 α      in ANC's #1, #2, #3, ...

........................................................................
.............................. CYCLE   38 ..............................
........................................................................

 iter      E             dE          RMSdq      gap      omega  full diag
   1    -51.8742943 -0.518743E+02  0.402E-02    3.44       0.0  T
   2    -51.8742944 -0.170057E-06  0.235E-02    3.44       1.0  T
   3    -51.8742944  0.186384E-07  0.242E-03    3.44       7.8  T
   4    -51.8742945 -0.862028E-07  0.910E-04    3.44      20.8  T
   5    -51.8742945 -0.390112E-08  0.271E-04    3.44      69.6  T
   6    -51.8742945 -0.208274E-09  0.129E-04    3.44     146.0  T
   7    -51.8742945 -0.109289E-09  0.605E-05    3.44     312.6  T
     SCC iter.                  ...        0 min,  0.006 sec
     gradient                   ...        0 min,  0.008 sec
 * total energy  :   -51.2294583 Eh     change       -0.5987591E-05 Eh
   gradient norm :     0.0004809 Eh/α   predicted    -0.2234910E-05 ( -62.67%)
   displ. norm   :     0.1769071 α      lambda       -0.4463805E-05
   maximum displ.:     0.1282522 α      in ANC's #1, #2, #3, ...

........................................................................
.............................. CYCLE   39 ..............................
........................................................................

 iter      E             dE          RMSdq      gap      omega  full diag
   1    -51.8742096 -0.518742E+02  0.470E-02    3.44       0.0  T
   2    -51.8742098 -0.218679E-06  0.275E-02    3.44       1.0  T
   3    -51.8742097  0.415480E-07  0.287E-03    3.44       6.6  T
   4    -51.8742099 -0.131672E-06  0.991E-04    3.44      19.1  T
   5    -51.8742099 -0.357089E-08  0.304E-04    3.44      62.2  T
   6    -51.8742099 -0.301618E-09  0.144E-04    3.44     131.2  T
   7    -51.8742099 -0.129226E-09  0.677E-05    3.44     279.3  T
     SCC iter.                  ...        0 min,  0.006 sec
     gradient                   ...        0 min,  0.008 sec
 * total energy  :   -51.2294641 Eh     change       -0.5841787E-05 Eh
   gradient norm :     0.0004282 Eh/α   predicted    -0.2263517E-05 ( -61.25%)
   displ. norm   :     0.2122669 α      lambda       -0.4619853E-05
   maximum displ.:     0.1547389 α      in ANC's #1, #2, #3, ...

........................................................................
.............................. CYCLE   40 ..............................
........................................................................

 iter      E             dE          RMSdq      gap      omega  full diag
   1    -51.8740958 -0.518741E+02  0.573E-02    3.44       0.0  T
   2    -51.8740961 -0.308857E-06  0.335E-02    3.44       1.0  T
   3    -51.8740961  0.589125E-07  0.341E-03    3.44       5.5  T
   4    -51.8740963 -0.186888E-06  0.115E-03    3.44      16.4  T
   5    -51.8740963 -0.439731E-08  0.363E-04    3.44      52.0  T
   6    -51.8740963 -0.529297E-09  0.172E-04    3.44     110.1  T
   7    -51.8740963 -0.177707E-09  0.776E-05    3.44     243.7  T
     SCC iter.                  ...        0 min,  0.006 sec
     gradient                   ...        0 min,  0.008 sec
 * total energy  :   -51.2294699 Eh     change       -0.5853253E-05 Eh
   gradient norm :     0.0004969 Eh/α   predicted    -0.2356606E-05 ( -59.74%)
   displ. norm   :     0.3361998 α      lambda       -0.6055792E-05
   maximum displ.:     0.2462365 α      in ANC's #1, #2, #3, ...

........................................................................
.............................. CYCLE   41 ..............................
........................................................................

 iter      E             dE          RMSdq      gap      omega  full diag
   1    -51.8736126 -0.518736E+02  0.924E-02    3.45       0.0  T
   2    -51.8736133 -0.718534E-06  0.541E-02    3.45       1.0  T
   3    -51.8736132  0.111600E-06  0.507E-03    3.45       3.7  T
   4    -51.8736136 -0.415277E-06  0.175E-03    3.45      10.8  T
   5    -51.8736136 -0.926484E-08  0.553E-04    3.45      34.2  T
   6    -51.8736136 -0.137884E-08  0.262E-04    3.45      72.1  T
   7    -51.8736136 -0.411923E-09  0.117E-04    3.45     161.7  T
   8    -51.8736136 -0.585700E-10  0.494E-05    3.45     382.8  T
     SCC iter.                  ...        0 min,  0.007 sec
     gradient                   ...        0 min,  0.008 sec
 * total energy  :   -51.2294754 Eh     change       -0.5499053E-05 Eh
   gradient norm :     0.0010510 Eh/α   predicted    -0.3180522E-05 ( -42.16%)
   displ. norm   :     0.2444054 α      lambda       -0.5008169E-05
   maximum displ.:     0.1831984 α      in ANC's #1, #2, #3, ...

........................................................................
.............................. CYCLE   42 ..............................
........................................................................

 iter      E             dE          RMSdq      gap      omega  full diag
   1    -51.8740645 -0.518741E+02  0.676E-02    3.45       0.0  T
   2    -51.8740649 -0.412094E-06  0.396E-02    3.45       1.0  T
   3    -51.8740647  0.192264E-06  0.457E-03    3.45       4.1  T
   4    -51.8740651 -0.365835E-06  0.124E-03    3.45      15.3  T
   5    -51.8740651 -0.339775E-08  0.423E-04    3.45      44.6  T
   6    -51.8740651 -0.692133E-09  0.186E-04    3.45     101.6  T
   7    -51.8740651 -0.185260E-09  0.850E-05    3.45     222.4  T
     SCC iter.                  ...        0 min,  0.006 sec
     gradient                   ...        0 min,  0.008 sec
 * total energy  :   -51.2294809 Eh     change       -0.5414863E-05 Eh
   gradient norm :     0.0009726 Eh/α   predicted    -0.2572372E-05 ( -52.49%)
   displ. norm   :     0.2352098 α      lambda       -0.3748058E-05
   maximum displ.:     0.1753076 α      in ANC's #1, #2, #3, ...
 * RMSD in coord.:     0.5075800 α      energy gain  -0.9226858E-04 Eh

generating ANC from exact Hessian ...
Using Lindh-Hessian (1995)
 Shifting diagonal of input Hessian by    9.5640646677880650E-003
 Lowest  eigenvalues of input Hessian
    0.000000    0.000000    0.000000    0.000000    0.000000    0.000000
    0.010000    0.011128    0.011595    0.012945    0.015875    0.016868
    0.021489    0.023684    0.024669    0.025991    0.029320    0.032454
 Highest eigenvalues
    2.001179    2.042630    2.163410    2.193289    2.625834    3.377870


........................................................................
.............................. CYCLE   43 ..............................
........................................................................

 iter      E             dE          RMSdq      gap      omega  full diag
   1    -51.8740493 -0.518740E+02  0.669E-02    3.46       0.0  T
   2    -51.8740497 -0.351696E-06  0.392E-02    3.46       1.0  T
   3    -51.8740495  0.129425E-06  0.399E-03    3.46       4.7  T
   4    -51.8740498 -0.282749E-06  0.115E-03    3.46      16.4  T
   5    -51.8740498 -0.314915E-08  0.380E-04    3.46      49.7  T
   6    -51.8740498 -0.497010E-09  0.167E-04    3.46     112.9  T
   7    -51.8740498 -0.183043E-09  0.752E-05    3.46     251.3  T
     SCC iter.                  ...        0 min,  0.006 sec
     gradient                   ...        0 min,  0.008 sec
 * total energy  :   -51.2294847 Eh     change       -0.3798582E-05 Eh
   gradient norm :     0.0010694 Eh/α   predicted     0.0000000E+00 (-100.00%)
   displ. norm   :     0.0120456 α      lambda       -0.1813719E-05
   maximum displ.:     0.0094612 α      in ANC's #3, #5, #2, ...

........................................................................
.............................. CYCLE   44 ..............................
........................................................................

 iter      E             dE          RMSdq      gap      omega  full diag
   1    -51.8747393 -0.518747E+02  0.560E-03    3.46       0.0  T
   2    -51.8747394 -0.233593E-07  0.328E-03    3.46       5.8  T
   3    -51.8747394  0.161683E-07  0.123E-03    3.46      15.4  T
   4    -51.8747394 -0.243700E-07  0.272E-04    3.46      69.6  T
   5    -51.8747394 -0.173749E-09  0.107E-04    3.46     176.1  T
   6    -51.8747394 -0.887752E-10  0.378E-05    3.46     500.4  T
     SCC iter.                  ...        0 min,  0.005 sec
     gradient                   ...        0 min,  0.008 sec
 * total energy  :   -51.2294872 Eh     change       -0.2545267E-05 Eh
   gradient norm :     0.0005238 Eh/α   predicted    -0.1330015E-05 ( -47.75%)
   displ. norm   :     0.0127368 α      lambda        0.4629825E-06
   maximum displ.:     0.0100718 α      in ANC's #3, #5, #2, ...

........................................................................
.............................. CYCLE   45 ..............................
........................................................................

 iter      E             dE          RMSdq      gap      omega  full diag
   1    -51.8754399 -0.518754E+02  0.584E-03    3.46       0.0  T
   2    -51.8754400 -0.249249E-07  0.342E-03    3.46       5.5  T
   3    -51.8754400  0.168774E-07  0.126E-03    3.46      15.0  T
   4    -51.8754400 -0.254867E-07  0.286E-04    3.46      66.1  T
   5    -51.8754400 -0.207365E-09  0.112E-04    3.46     169.2  T
   6    -51.8754400 -0.938556E-10  0.398E-05    3.46     475.4  T
     SCC iter.                  ...        0 min,  0.005 sec
     gradient                   ...        0 min,  0.008 sec
 * total energy  :   -51.2294869 Eh     change        0.3151316E-06 Eh
   gradient norm :     0.0011291 Eh/α   predicted     0.2302890E-06 ( -26.92%)
   displ. norm   :     0.0080381 α      lambda       -0.2090351E-05
   maximum displ.:     0.0066399 α      in ANC's #3, #39, #2, ...

........................................................................
.............................. CYCLE   46 ..............................
........................................................................

 iter      E             dE          RMSdq      gap      omega  full diag
   1    -51.8748936 -0.518749E+02  0.393E-03    3.46       0.0  T
   2    -51.8748937 -0.136412E-07  0.233E-03    3.46       8.1  T
   3    -51.8748936  0.890488E-08  0.958E-04    3.46      19.7  T
   4    -51.8748937 -0.140825E-07  0.167E-04    3.46     113.0  T
   5    -51.8748937 -0.102020E-09  0.747E-05    3.46     252.9  T
     SCC iter.                  ...        0 min,  0.004 sec
     gradient                   ...        0 min,  0.008 sec
 * total energy  :   -51.2294892 Eh     change       -0.2268567E-05 Eh
   gradient norm :     0.0004545 Eh/α   predicted    -0.1046559E-05 ( -53.87%)
   displ. norm   :     0.0193263 α      lambda       -0.1613114E-05
   maximum displ.:     0.0165088 α      in ANC's #3, #2, #5, ...

........................................................................
.............................. CYCLE   47 ..............................
........................................................................

 iter      E             dE          RMSdq      gap      omega  full diag
   1    -51.8744727 -0.518745E+02  0.725E-03    3.46       0.0  T
   2    -51.8744728 -0.365952E-07  0.410E-03    3.46       4.6  T
   3    -51.8744728  0.150905E-07  0.139E-03    3.46      13.6  T
   4    -51.8744728 -0.268537E-07  0.366E-04    3.46      51.6  T
   5    -51.8744728 -0.857490E-09  0.139E-04    3.46     135.5  T
   6    -51.8744728 -0.253166E-10  0.378E-05    3.46     500.1  T
     SCC iter.                  ...        0 min,  0.005 sec
     gradient                   ...        0 min,  0.008 sec
 * total energy  :   -51.2294909 Eh     change       -0.1731839E-05 Eh
   gradient norm :     0.0002848 Eh/α   predicted    -0.8074894E-06 ( -53.37%)
   displ. norm   :     0.0227475 α      lambda       -0.1117395E-05
   maximum displ.:     0.0191423 α      in ANC's #3, #2, #5, ...

........................................................................
.............................. CYCLE   48 ..............................
........................................................................

 iter      E             dE          RMSdq      gap      omega  full diag
   1    -51.8743869 -0.518744E+02  0.890E-03    3.46       0.0  T
   2    -51.8743869 -0.357478E-07  0.503E-03    3.46       3.8  T
   3    -51.8743869  0.811507E-08  0.122E-03    3.46      15.5  T
   4    -51.8743869 -0.204215E-07  0.399E-04    3.46      47.4  T
   5    -51.8743870 -0.671093E-09  0.146E-04    3.46     129.3  T
   6    -51.8743870 -0.567439E-10  0.441E-05    3.46     428.6  T
     SCC iter.                  ...        0 min,  0.005 sec
     gradient                   ...        0 min,  0.008 sec
 * total energy  :   -51.2294922 Eh     change       -0.1333543E-05 Eh
   gradient norm :     0.0004847 Eh/α   predicted    -0.5593317E-06 ( -58.06%)
   displ. norm   :     0.0306107 α      lambda       -0.1300511E-05
   maximum displ.:     0.0248664 α      in ANC's #3, #2, #19, ...

........................................................................
.............................. CYCLE   49 ..............................
........................................................................

 iter      E             dE          RMSdq      gap      omega  full diag
   1    -51.8744062 -0.518744E+02  0.124E-02    3.46       0.0  T
   2    -51.8744063 -0.573964E-07  0.705E-03    3.46       2.7  T
   3    -51.8744063  0.661145E-08  0.141E-03    3.46      13.4  T
   4    -51.8744063 -0.283745E-07  0.494E-04    3.46      38.3  T
   5    -51.8744063 -0.600856E-09  0.179E-04    3.46     105.6  T
   6    -51.8744063 -0.139757E-09  0.529E-05    3.46     357.2  T
     SCC iter.                  ...        0 min,  0.005 sec
     gradient                   ...        0 min,  0.008 sec
 * total energy  :   -51.2294937 Eh     change       -0.1455268E-05 Eh
   gradient norm :     0.0005659 Eh/α   predicted    -0.6532989E-06 ( -55.11%)
   displ. norm   :     0.0325017 α      lambda       -0.1087764E-05
   maximum displ.:     0.0256711 α      in ANC's #3, #2, #7, ...

........................................................................
.............................. CYCLE   50 ..............................
........................................................................

 iter      E             dE          RMSdq      gap      omega  full diag
   1    -51.8745774 -0.518746E+02  0.135E-02    3.46       0.0  T
   2    -51.8745775 -0.522410E-07  0.782E-03    3.46       2.4  T
   3    -51.8745775 -0.830355E-08  0.108E-03    3.46      17.5  T
   4    -51.8745775 -0.127559E-07  0.465E-04    3.46      40.6  T
   5    -51.8745775 -0.244675E-09  0.152E-04    3.46     124.1  T
   6    -51.8745775 -0.189694E-09  0.452E-05    3.46     418.3  T
     SCC iter.                  ...        0 min,  0.005 sec
     gradient                   ...        0 min,  0.008 sec
 * total energy  :   -51.2294948 Eh     change       -0.1140039E-05 Eh
   gradient norm :     0.0004265 Eh/α   predicted    -0.5467090E-06 ( -52.04%)
   displ. norm   :     0.0264308 α      lambda       -0.6672776E-06
   maximum displ.:     0.0192074 α      in ANC's #3, #2, #7, ...

........................................................................
.............................. CYCLE   51 ..............................
........................................................................

 iter      E             dE          RMSdq      gap      omega  full diag
   1    -51.8746933 -0.518747E+02  0.112E-02    3.46       0.0  T
   2    -51.8746934 -0.310265E-07  0.652E-03    3.46       2.9  T
   3    -51.8746934 -0.487955E-08  0.814E-04    3.46      23.2  T
   4    -51.8746934 -0.710849E-08  0.362E-04    3.46      52.2  T
   5    -51.8746934 -0.392333E-09  0.131E-04    3.46     144.4  T
   6    -51.8746934 -0.804690E-10  0.398E-05    3.46     475.0  T
     SCC iter.                  ...        0 min,  0.005 sec
     gradient                   ...        0 min,  0.008 sec
 * total energy  :   -51.2294955 Eh     change       -0.7240483E-06 Eh
   gradient norm :     0.0002359 Eh/α   predicted    -0.3373388E-06 ( -53.41%)
   displ. norm   :     0.0245430 α      lambda       -0.5037478E-06
   maximum displ.:     0.0151264 α      in ANC's #3, #2, #6, ...

   *** GEOMETRY OPTIMIZATION CONVERGED AFTER 51 ITERATIONS ***

------------------------------------------------------------------------
 total energy gain   :        -0.0041166 Eh       -2.5832 kcal/mol
 total RMSD          :         0.6414589 a0        0.3394 Å
 total power (kW/mol):        -0.2119224 (step)  -12.8283 (real)
------------------------------------------------------------------------

 ANCopt (total)                0 d,  0 h,  0 min,  0.843 sec
 optimizer setup                ...        0 min,  0.000 sec (  0.008%)
 model hessian                  ...        0 min,  0.009 sec (  1.083%)
 ANC generation                 ...        0 min,  0.001 sec (  0.165%)
 coordinate transformation      ...        0 min,  0.000 sec (  0.033%)
 single point calculation       ...        0 min,  0.824 sec ( 97.775%)
 optimization log               ...        0 min,  0.004 sec (  0.424%)
 hessian update                 ...        0 min,  0.000 sec (  0.056%)
 rational function              ...        0 min,  0.002 sec (  0.290%)

================
 final structure:
================
28
 xtb: 6.7.1 (edcfbbe)
N            0.42436037062510       -1.05166682160370        0.28553794010757
C            1.69930880424802       -0.62462211705905        0.26767576729892
C            2.27540921001862       -0.02728285091441        1.40542986679906
C            3.58275610191539        0.39820399656917        1.38773278379044
C            2.48996690877402       -0.76510040430884       -0.88997040046607
C            3.79704266524299       -0.34037764625085       -0.90080007086616
C            4.33884328028307        0.23869026095904        0.23718757434062
S            6.03585711298618        0.70310858471384        0.21616108089262
N            6.90852084676713       -0.73956856163488        0.30158729520182
C            6.59469381433540       -1.63677826638240        1.29158902746512
C            6.22194025167567       -1.32047822707763        2.62513067623261
C            6.04171969210038       -2.53955454154881        3.21138943264858
O            6.28719734812056       -3.50343381982896        2.30456079887832
N            6.62569427766606       -2.93854373722312        1.10770202573614
C            5.64642675442888       -2.94566555150388        4.57766274849192
O            6.41754655644317        1.26802248371323       -1.06002532909083
O            6.36936460093566        1.48279016188531        1.38712716518180
H           -0.13579250292530       -0.93431957006945        1.10978851972145
H            0.01712661196406       -1.45958633787097       -0.53589817831045
H            1.68177650493793        0.09715620825586        2.29650965033564
H            4.03780424680027        0.86909949672542        2.24351684148081
H            2.06179138973782       -1.21178475969502       -1.77269637750288
H            4.41386477834327       -0.43001089305301       -1.78033841089933
H            7.10373051784003       -1.15582364461828       -0.59706376800062
H            6.14031600295307       -0.34096991784166        3.04113343275781
H            5.47917670579309       -2.06358067249730        5.18509651339323
H            6.42984609963727       -3.55563770200187        5.02181715288598
H            4.73994844834564       -3.54501804983994        4.53556904149753

 Bond Distances (Angstroems)
 ---------------------------
N1-C2=1.3447         N1-H18=1.0035        N1-H19=1.0035        C2-N1=1.3447         C2-C3=1.4083         C2-C5=1.4089         
C3-C2=1.4083         C3-C4=1.3750         C3-H20=1.0779        C4-C3=1.3750         C4-C7=1.3860         C4-H21=1.0776        
C5-C2=1.4089         C5-C6=1.3744         C5-H22=1.0780        C6-C5=1.3744         C6-C7=1.3870         C6-H23=1.0780        
C7-C4=1.3860         C7-C6=1.3870         C7-S8=1.7595         S8-C7=1.7595         S8-N9=1.6882         S8-O16=1.4469        
S8-O17=1.4458        N9-S8=1.6882         N9-C10=1.3724        N9-H24=1.0094        C10-N9=1.3724        C10-C11=1.4203       
C10-N14=1.3151       C11-C10=1.4203       C11-C12=1.3647       C11-H25=1.0673       C12-C11=1.3647       C12-O13=1.3460       
C12-C15=1.4792       O13-C12=1.3460       O13-N14=1.3661       N14-C10=1.3151       N14-O13=1.3661       C15-C12=1.4792       
C15-H26=1.0840       C15-H27=1.0877       C15-H28=1.0875       O16-S8=1.4469        O17-S8=1.4458        H18-N1=1.0035        
H19-N1=1.0035        H20-C3=1.0779        H21-C4=1.0776        H22-C5=1.0780        H23-C6=1.0780        H24-N9=1.0094        
H25-C11=1.0673       H26-C15=1.0840       H27-C15=1.0877       H28-C15=1.0875       
 C  H  Rav=1.0798 sigma=0.0062  Rmin=1.0673  Rmax=1.0877     8
 C  C  Rav=1.4004 sigma=0.0329  Rmin=1.3647  Rmax=1.4792     9
 N  H  Rav=1.0055 sigma=0.0028  Rmin=1.0035  Rmax=1.0094     3
 N  C  Rav=1.3441 sigma=0.0234  Rmin=1.3151  Rmax=1.3724     3
 O  C  Rav=1.3460 sigma=0.0000  Rmin=1.3460  Rmax=1.3460     1
 O  N  Rav=1.3661 sigma=0.0000  Rmin=1.3661  Rmax=1.3661     1
 S  C  Rav=1.7595 sigma=0.0000  Rmin=1.7595  Rmax=1.7595     1
 S  N  Rav=1.6882 sigma=0.0000  Rmin=1.6882  Rmax=1.6882     1
 S  O  Rav=1.4463 sigma=0.0005  Rmin=1.4458  Rmax=1.4469     2

 selected bond angles (degree)
 --------------------
H18-N1-C2=120.20               H19-N1-C2=120.20               H19-N1-H18=119.56              C3-C2-N1=120.79                
C5-C2-N1=120.75                C5-C2-C3=118.46                C4-C3-C2=120.65                H20-C3-C2=119.44               
H20-C3-C4=119.90               C7-C4-C3=119.59                H21-C4-C3=121.77               H21-C4-C7=118.63               
C6-C5-C2=120.62                H22-C5-C2=119.42               H22-C5-C6=119.96               C7-C6-C5=119.61                
H23-C6-C5=121.66               H23-C6-C7=118.72               C6-C7-C4=121.07                S8-C7-C4=120.38                
S8-C7-C6=118.50                N9-S8-C7=105.81                O16-S8-C7=111.59               O16-S8-N9=104.00               
O17-S8-C7=110.80               O17-S8-N9=107.49               O17-S8-O16=116.29              C10-N9-S8=118.49               
H24-N9-S8=114.04               H24-N9-C10=114.63              C11-C10-N9=126.28              N14-C10-N9=122.74              
N14-C10-C11=110.97             

 selected dihedral angles (degree)
 ---------------------------------
C3-C2-N1-H18=  1.00           C3-C2-N1-H19=178.79           C5-C2-N1-H18=180.97           C5-C2-N1-H19=358.76           
C4-C3-C2-N1=179.45            C4-C3-C2-C5=359.48            H20-C3-C2-N1=359.36           H20-C3-C2-C5=179.38           
C7-C4-C3-C2=  0.10            C7-C4-C3-H20=180.20           H21-C4-C3-C2=179.19           H21-C4-C3-H20=359.28          
C6-C5-C2-N1=180.68            C6-C5-C2-C3=  0.66            H22-C5-C2-N1=  0.60           H22-C5-C2-C3=180.57           
C7-C6-C5-C2=359.63            C7-C6-C5-H22=179.72           H23-C6-C5-C2=180.67           H23-C6-C5-H22=  0.75          
C6-C7-C4-C3=  0.20            C6-C7-C4-H21=181.09           S8-C7-C4-C3=183.01            S8-C7-C4-H21=  3.89           
C4-C7-C6-C5=359.93            C4-C7-C6-H23=178.93           S8-C7-C6-C5=177.18            S8-C7-C6-H23=356.17           
N9-S8-C7-C4=103.98            N9-S8-C7-C6=286.72            O16-S8-C7-C4=216.47           O16-S8-C7-C6= 39.21           
O17-S8-C7-C4=347.77           O17-S8-C7-C6=170.50           C10-N9-S8-C7=308.95           C10-N9-S8-O16=191.25          
C10-N9-S8-O17= 67.39          H24-N9-S8-C7= 88.52           H24-N9-S8-O16=330.83          H24-N9-S8-O17=206.96          
C11-C10-N9-S8=322.30          C11-C10-N9-H24=182.96         N14-C10-N9-S8=143.34          N14-C10-N9-H24=  4.00         
           -------------------------------------------------
          |                Final Singlepoint                |
           -------------------------------------------------

          ...................................................
          :                      SETUP                      :
          :.................................................:
          :  # basis functions                  85          :
          :  # atomic orbitals                  84          :
          :  # shells                           46          :
          :  # electrons                        90          :
          :  max. iterations                   250          :
          :  Hamiltonian                  GFN2-xTB          :
          :  restarted?                      false          :
          :  GBSA solvation                   true          :
          :  PC potential                    false          :
          :  electronic temp.          300.0000000     K    :
          :  accuracy                    0.2000000          :
          :  -> integral cutoff          0.3198970E+02      :
          :  -> integral neglect         0.2000000E-08      :
          :  -> SCF convergence          0.2000000E-06 Eh   :
          :  -> wf. convergence          0.2000000E-04 e    :
          :  Broyden damping             0.4000000          :
          :  net charge                          0          :
          :  unpaired electrons                  0          :
          ...................................................

 iter      E             dE          RMSdq      gap      omega  full diag
   1    -51.8746934 -0.518747E+02  0.129E-05    3.46       0.0  T
   2    -51.8746934 -0.483169E-12  0.768E-06    3.46    2459.3  T
   3    -51.8746934  0.710543E-14  0.450E-06    3.46    4196.5  T

   *** convergence criteria satisfied after 3 iterations ***

         #    Occupation            Energy/Eh            Energy/eV
      -------------------------------------------------------------
         1        2.0000           -0.7946065             -21.6223
       ...           ...                  ...                  ...
        39        2.0000           -0.4427136             -12.0468
        40        2.0000           -0.4367861             -11.8856
        41        2.0000           -0.4240471             -11.5389
        42        2.0000           -0.4205954             -11.4450
        43        2.0000           -0.4195255             -11.4159
        44        2.0000           -0.4102658             -11.1639
        45        2.0000           -0.3749193             -10.2021 (HOMO)
        46                         -0.2479443              -6.7469 (LUMO)
        47                         -0.2409273              -6.5560
        48                         -0.2374409              -6.4611
        49                         -0.1832423              -4.9863
        50                         -0.1286584              -3.5010
       ...                                ...                  ...
        84                          1.1703679              31.8473
      -------------------------------------------------------------
                  HL-Gap            0.1269750 Eh            3.4552 eV
             Fermi-level           -0.3114318 Eh           -8.4745 eV

 SCC (total)                   0 d,  0 h,  0 min,  0.013 sec
 SCC setup                      ...        0 min,  0.000 sec (  3.105%)
 Dispersion                     ...        0 min,  0.000 sec (  0.744%)
 classical contributions        ...        0 min,  0.000 sec (  0.295%)
 integral evaluation            ...        0 min,  0.002 sec ( 17.713%)
 iterations                     ...        0 min,  0.003 sec ( 18.978%)
 molecular gradient             ...        0 min,  0.008 sec ( 58.199%)
 printout                       ...        0 min,  0.000 sec (  0.894%)

         :::::::::::::::::::::::::::::::::::::::::::::::::::::
         ::                     SUMMARY                     ::
         :::::::::::::::::::::::::::::::::::::::::::::::::::::
         :: total energy             -51.229495545578 Eh    ::
         :: total w/o Gsasa/hb       -51.219792298969 Eh    ::
         :: gradient norm              0.000236509213 Eh/a0 ::
         :: HOMO-LUMO gap              3.455165566008 eV    ::
         ::.................................................::
         :: SCC energy               -51.874175197473 Eh    ::
         :: -> isotropic ES            0.128553967299 Eh    ::
         :: -> anisotropic ES         -0.019612610153 Eh    ::
         :: -> anisotropic XC          0.021333981221 Eh    ::
         :: -> dispersion             -0.031648373390 Eh    ::
         :: -> Gsolv                  -0.046636958112 Eh    ::
         ::    -> Gelec               -0.036933711503 Eh    ::
         ::    -> Gsasa               -0.000644328561 Eh    ::
         ::    -> Ghb                 -0.010139677747 Eh    ::
         ::    -> Gshift               0.001080759698 Eh    ::
         :: repulsion energy           0.644679651895 Eh    ::
         :: add. restraining           0.000000000000 Eh    ::
         :: total charge               0.000000000000 e     ::
         :::::::::::::::::::::::::::::::::::::::::::::::::::::

           ------------------------------------------------- 
          |                Numerical Hessian                |
           ------------------------------------------------- 
step length          :   0.00500
SCC accuracy         :   0.30000
Hessian scale factor :   1.00000
frozen atoms in %    :   0.00000    0
RMS gradient         :   0.00024
estimated CPU  time      0.04 min
estimated wall time      0.04 min

writing file <hessian>.

 projected vibrational frequencies (cm⁻¹)
eigval :       -0.00    -0.00    -0.00    -0.00     0.00     0.00
eigval :        9.68    22.65    41.48    54.92    78.22    94.11
eigval :      126.91   154.00   180.89   211.46   233.04   263.08
eigval :      299.03   326.94   342.73   351.37   376.50   386.84
eigval :      400.63   465.47   489.95   490.84   499.15   562.15
eigval :      600.11   601.79   631.01   641.71   661.12   666.54
eigval :      727.49   791.18   795.72   817.55   849.00   851.79
eigval :      903.60   915.10   961.70   966.13   986.68  1003.97
eigval :     1023.73  1028.69  1053.83  1068.79  1104.20  1116.23
eigval :     1120.99  1160.31  1176.44  1184.48  1245.59  1252.18
eigval :     1319.32  1357.02  1378.25  1421.81  1422.61  1426.53
eigval :     1427.68  1435.16  1509.61  1530.49  1561.35  1581.66
eigval :     1594.64  3028.54  3040.67  3081.51  3100.20  3103.30
eigval :     3110.57  3114.77  3220.63  3436.93  3494.71  3562.28
           -------------------------------------------------
          |                Property Printout                |
           -------------------------------------------------

    * Orbital Energies and Occupations

         #    Occupation            Energy/Eh            Energy/eV
      -------------------------------------------------------------
         1        2.0000           -0.7946065             -21.6223
       ...           ...                  ...                  ...
        33        2.0000           -0.4838200             -13.1654
        34        2.0000           -0.4796166             -13.0510
        35        2.0000           -0.4724547             -12.8561
        36        2.0000           -0.4713665             -12.8265
        37        2.0000           -0.4661597             -12.6849
        38        2.0000           -0.4624873             -12.5849
        39        2.0000           -0.4427135             -12.0468
        40        2.0000           -0.4367861             -11.8856
        41        2.0000           -0.4240471             -11.5389
        42        2.0000           -0.4205954             -11.4450
        43        2.0000           -0.4195256             -11.4159
        44        2.0000           -0.4102658             -11.1639
        45        2.0000           -0.3749193             -10.2021 (HOMO)
        46                         -0.2479443              -6.7469 (LUMO)
        47                         -0.2409273              -6.5560
        48                         -0.2374409              -6.4611
        49                         -0.1832423              -4.9863
        50                         -0.1286584              -3.5010
        51                         -0.1277588              -3.4765
        52                         -0.0843445              -2.2951
        53                         -0.0729324              -1.9846
        54                         -0.0553710              -1.5067
        55                         -0.0258439              -0.7032
        56                          0.0277640               0.7555
       ...                                ...                  ...
        84                          1.1703679              31.8473
      -------------------------------------------------------------
                  HL-Gap            0.1269750 Eh            3.4552 eV
             Fermi-level           -0.3114318 Eh           -8.4745 eV

     #   Z          covCN         q      C6AA      α(0)
     1   7 N        2.645    -0.267    26.923     7.706
     2   6 C        2.896     0.101    25.771     8.323
     3   6 C        2.926    -0.067    29.677     8.934
     4   6 C        2.958    -0.031    28.770     8.798
     5   6 C        2.925    -0.066    29.639     8.928
     6   6 C        2.969    -0.033    28.829     8.807
     7   6 C        2.973    -0.117    30.971     9.129
     8  16 S        3.813     1.157   102.256    17.019
     9   7 N        2.688    -0.366    29.435     8.058
    10   6 C        3.090     0.146    24.725     8.150
    11   6 C        2.946    -0.113    30.871     9.113
    12   6 C        3.026     0.147    24.777     8.165
    13   8 O        1.819    -0.143    16.445     5.476
    14   7 N        1.937    -0.223    26.702     7.662
    15   6 C        3.754    -0.153    23.516     6.915
    16   8 O        0.860    -0.655    27.515     7.033
    17   8 O        0.860    -0.643    27.205     6.993
    18   1 H        0.861     0.234     0.949     1.526
    19   1 H        0.861     0.233     0.952     1.529
    20   1 H        0.926     0.078     2.002     2.213
    21   1 H        0.926     0.052     2.294     2.368
    22   1 H        0.926     0.075     2.026     2.226
    23   1 H        0.926     0.048     2.341     2.393
    24   1 H        0.861     0.247     0.894     1.481
    25   1 H        0.927     0.055     2.255     2.348
    26   1 H        0.925     0.093     1.852     2.128
    27   1 H        0.925     0.104     1.752     2.070
    28   1 H        0.925     0.108     1.711     2.046

 Mol. C6AA /au·bohr⁶  :      11453.442618
 Mol. C8AA /au·bohr⁸  :     293040.462754
 Mol. α(0) /au        :        167.536706


molecular dipole:
                 x           y           z       tot (Debye)
 q only:       -4.683      -2.233       1.185
   full:       -4.400      -1.910       1.093      12.504
molecular quadrupole (traceless):
                xx          xy          yy          xz          yz          zz
 q only:      -69.594     -26.354      19.102      12.150      -8.491      50.492
  q+dip:      -62.358     -20.245      12.456      11.150      -4.771      49.902
   full:      -62.305     -21.165      13.392      11.647      -6.252      48.912

           -------------------------------------------------
          |                Geometry Summary                 |
           -------------------------------------------------

      molecular mass/u    :      253.2778190
   center of mass at/Å    :        4.9323109      -0.7282476       0.9885019
  moments of inertia/u·Å² :        0.9738269E+03   0.1361181E+04   0.1900194E+04
rotational constants/cm⁻¹ :        0.1731071E-01   0.1238457E-01   0.8871531E-02

 * 29 selected distances

     #   Z          #   Z                                           value/Å
     1   7 N        2   6 C                                       1.3446859
     2   6 C        3   6 C                                       1.4082580
     3   6 C        4   6 C                                       1.3749576
     2   6 C        5   6 C                                       1.4089072
     5   6 C        6   6 C                                       1.3743923
     4   6 C        7   6 C                                       1.3859535
     6   6 C        7   6 C                                       1.3870414
     7   6 C        8  16 S                                       1.7595406 (max)
     8  16 S        9   7 N                                       1.6882410
     9   7 N       10   6 C                                       1.3724345
    10   6 C       11   6 C                                       1.4203255
    11   6 C       12   6 C                                       1.3646707
    12   6 C       13   8 O                                       1.3459796
    10   6 C       14   7 N                                       1.3150548
    13   8 O       14   7 N                                       1.3660718
    12   6 C       15   6 C                                       1.4791504
     8  16 S       16   8 O                                       1.4468817
     8  16 S       17   8 O                                       1.4457844
     1   7 N       18   1 H                                       1.0034594 (min)
     1   7 N       19   1 H                                       1.0034915
     3   6 C       20   1 H                                       1.0779185
     4   6 C       21   1 H                                       1.0775797
     5   6 C       22   1 H                                       1.0779919
     6   6 C       23   1 H                                       1.0780035
     9   7 N       24   1 H                                       1.0094301
    11   6 C       25   1 H                                       1.0673132
    15   6 C       26   1 H                                       1.0839845
    15   6 C       27   1 H                                       1.0876972
    15   6 C       28   1 H                                       1.0875194

 * 9 distinct bonds (by element types)

   Z      Z             #   av. dist./Å        max./Å        min./Å
   1 H    6 C           8     1.0797510     1.0876972     1.0673132
   6 C    6 C           9     1.4004063     1.4791504     1.3646707
   1 H    7 N           3     1.0054603     1.0094301     1.0034594
   6 C    7 N           3     1.3440584     1.3724345     1.3150548
   6 C    8 O           1     1.3459796     1.3459796     1.3459796
   7 N    8 O           1     1.3660718     1.3660718     1.3660718
   6 C   16 S           1     1.7595406     1.7595406     1.7595406
   7 N   16 S           1     1.6882410     1.6882410     1.6882410
   8 O   16 S           2     1.4463331     1.4468817     1.4457844

           -------------------------------------------------
          |               Frequency Printout                |
           -------------------------------------------------
 projected vibrational frequencies (cm⁻¹)
eigval :       -0.00    -0.00    -0.00    -0.00     0.00     0.00
eigval :        9.68    22.65    41.48    54.92    78.22    94.11
eigval :      126.91   154.00   180.89   211.46   233.04   263.08
eigval :      299.03   326.94   342.73   351.37   376.50   386.84
eigval :      400.63   465.47   489.95   490.84   499.15   562.15
eigval :      600.11   601.79   631.01   641.71   661.12   666.54
eigval :      727.49   791.18   795.72   817.55   849.00   851.79
eigval :      903.60   915.10   961.70   966.13   986.68  1003.97
eigval :     1023.73  1028.69  1053.83  1068.79  1104.20  1116.23
eigval :     1120.99  1160.31  1176.44  1184.48  1245.59  1252.18
eigval :     1319.32  1357.02  1378.25  1421.81  1422.61  1426.53
eigval :     1427.68  1435.16  1509.61  1530.49  1561.35  1581.66
eigval :     1594.64  3028.54  3040.67  3081.51  3100.20  3103.30
eigval :     3110.57  3114.77  3220.63  3436.93  3494.71  3562.28
 reduced masses (amu)
   1: 13.16   2: 13.72   3: 12.89   4: 17.39   5: 16.35   6: 13.11   7: 10.50   8: 13.30
   9:  1.53  10: 10.78  11: 12.45  12: 13.16  13: 13.40  14: 12.14  15:  4.87  16: 10.61
  17: 13.19  18: 14.37  19: 14.66  20: 12.13  21: 15.88  22: 12.17  23:  8.72  24: 12.28
  25: 11.24  26: 12.64  27: 17.58  28: 14.07  29:  1.86  30:  9.82  31: 12.29  32: 11.29
  33: 10.53  34: 15.29  35: 11.10  36: 11.43  37: 13.89  38: 12.79  39:  5.11  40:  3.46
  41:  3.50  42: 11.32  43:  2.76  44:  3.66  45:  8.35  46:  4.39  47:  9.80  48:  8.63
  49:  4.65  50:  8.83  51: 14.37  52: 14.58  53:  6.73  54: 10.31  55:  2.72  56: 12.11
  57:  4.14  58: 17.52  59: 11.04  60:  3.40  61:  7.23  62: 11.26  63:  3.37  64:  4.63
  65: 10.58  66: 10.73  67:  1.61  68:  2.43  69: 10.91  70: 12.29  71: 11.70  72: 11.53
  73: 11.66  74:  1.95  75:  1.44  76:  1.78  77:  1.78  78:  1.79  79:  1.89  80:  1.88
  81:  1.92  82:  1.85  83:  1.43  84:  2.21
 IR intensities (km·mol⁻¹)
   1:  1.12   2:  1.14   3:  1.45   4:  2.39   5:  1.64   6:  2.07   7:  1.26   8:  2.64
   9:  1.64  10:  2.59  11:  2.55  12:  9.17  13:  2.78  14: 30.02  15:215.67  16: 34.94
  17: 20.71  18: 18.10  19:  1.67  20:  5.74  21: 21.32  22:  0.70  23:  0.34  24:  7.27
  25:  2.70  26: 35.08  27:144.89  28:197.67  29:  1.13  30:333.72  31:  2.21  32:  1.45
  33: 32.52  34:143.96  35: 22.90  36: 46.97  37:145.13  38:160.88  39: 41.16  40: 39.81
  41:  0.27  42: 30.42  43:  0.12  44:  0.36  45: 56.39  46:  6.43  47: 12.10  48: 14.09
  49: 11.68  50: 18.57  51:419.42  52:167.24  53: 47.35  54:346.04  55: 25.77  56:201.25
  57: 53.25  58:636.77  59: 84.91  60:  1.75  61:165.11  62: 10.36  63: 12.12  64:106.63
  65:321.93  66:  1.71  67: 11.29  68: 25.26  69:302.46  70:185.38  71: 21.31  72:659.01
  73:312.14  74:  1.65  75:  4.60  76:  5.86  77: 11.57  78: 22.15  79: 65.39  80: 22.94
  81:  6.62  82: 85.79  83:213.65  84: 66.29
 Raman intensities (Ä⁴*amu⁻¹)
   1:  0.00   2:  0.00   3:  0.00   4:  0.00   5:  0.00   6:  0.00   7:  0.00   8:  0.00
   9:  0.00  10:  0.00  11:  0.00  12:  0.00  13:  0.00  14:  0.00  15:  0.00  16:  0.00
  17:  0.00  18:  0.00  19:  0.00  20:  0.00  21:  0.00  22:  0.00  23:  0.00  24:  0.00
  25:  0.00  26:  0.00  27:  0.00  28:  0.00  29:  0.00  30:  0.00  31:  0.00  32:  0.00
  33:  0.00  34:  0.00  35:  0.00  36:  0.00  37:  0.00  38:  0.00  39:  0.00  40:  0.00
  41:  0.00  42:  0.00  43:  0.00  44:  0.00  45:  0.00  46:  0.00  47:  0.00  48:  0.00
  49:  0.00  50:  0.00  51:  0.00  52:  0.00  53:  0.00  54:  0.00  55:  0.00  56:  0.00
  57:  0.00  58:  0.00  59:  0.00  60:  0.00  61:  0.00  62:  0.00  63:  0.00  64:  0.00
  65:  0.00  66:  0.00  67:  0.00  68:  0.00  69:  0.00  70:  0.00  71:  0.00  72:  0.00
  73:  0.00  74:  0.00  75:  0.00  76:  0.00  77:  0.00  78:  0.00  79:  0.00  80:  0.00
  81:  0.00  82:  0.00  83:  0.00  84:  0.00
 output can be read by thermo (or use thermo option).
 writing <g98.out> molden fake output.
 recommended (thermochemical) frequency scaling factor: 1.0
           -------------------------------------------------
          |             Thermodynamic Functions             |
           -------------------------------------------------

Refinement of some symmetry elements was terminated before convergence was reached.
Some symmetry elements may remain unidentified.
Molecule has no symmetry elements
It seems to be the C1 point group
c1  symmetry found (for desy threshold:  0.10E+00) used in thermo

          ...................................................
          :                      SETUP                      :
          :.................................................:
          :  # frequencies                          78      :
          :  # imaginary freq.                       0      :
          :  linear?                             false      :
          :  only rotor calc.                    false      :
          :  symmetry                               c1      :
          :  rotational number                       1      :
          :  scaling factor                  1.0000000      :
          :  rotor cutoff                   50.0000000 cm⁻¹ :
          :  imag. cutoff                  -20.0000000 cm⁻¹ :
          :.................................................:

    mode    ω/cm⁻¹     T·S(HO)/kcal·mol⁻¹    T·S(FR)/kcal·mol⁻¹   T·S(vib)
   ------------------------------------------------------------------------
       1      9.68    -2.40775 (  0.14%)    -1.54260 ( 99.86%)    -1.54382
       2     22.65    -1.90425 (  4.04%)    -1.29094 ( 95.96%)    -1.31573
       3     41.48    -1.54656 ( 32.14%)    -1.11182 ( 67.86%)    -1.25154
       4     54.92    -1.38102 ( 59.27%)    -1.02870 ( 40.73%)    -1.23752
       5     78.22    -1.17321 ( 85.69%)    -0.92392 ( 14.31%)    -1.13755
       6     94.11    -1.06524 ( 92.62%)    -0.86917 (  7.38%)    -1.05077
       7    126.91    -0.89218 ( 97.65%)    -0.78059 (  2.35%)    -0.88955
       8    154.00    -0.78181 ( 98.90%)    -0.72328 (  1.10%)    -0.78117
       9    180.89    -0.69149 ( 99.42%)    -0.67561 (  0.58%)    -0.69139
      10    211.46    -0.60554 ( 99.69%)    -0.62935 (  0.31%)    -0.60562
      11    233.04    -0.55318 ( 99.79%)    -0.60056 (  0.21%)    -0.55328
      12    263.08    -0.48933 ( 99.87%)    -0.56464 (  0.13%)    -0.48942
      13    299.03    -0.42406 ( 99.92%)    -0.52670 (  0.08%)    -0.42414
   ------------------------------------------------------------------------

   temp. (K)  partition function   enthalpy   heat capacity  entropy
                                   cal/mol     cal/K/mol   cal/K/mol   J/K/mol
 298.15  VIB  0.115E+08             8797.744     53.340     55.295
         ROT  0.383E+07              888.752      2.981     33.107
         INT  0.440E+14             9686.497     56.321     88.402
         TR   0.390E+28             1481.254      4.968     42.469
         TOT                       11167.7507    61.2895   130.8704   547.5617

       T/K    H(0)-H(T)+PV         H(T)/Eh          T*S/Eh         G(T)/Eh
   ------------------------------------------------------------------------
    298.15    0.177969E-01    0.219711E+00    0.621807E-01    0.157530E+00
   ------------------------------------------------------------------------

         :::::::::::::::::::::::::::::::::::::::::::::::::::::
         ::                  THERMODYNAMIC                  ::
         :::::::::::::::::::::::::::::::::::::::::::::::::::::
         :: total free energy         -51.071965467607 Eh   ::
         ::.................................................::
         :: total energy              -51.229495543627 Eh   ::
         :: zero point energy           0.201913880749 Eh   ::
         :: G(RRHO) w/o ZPVE           -0.044383804730 Eh   ::
         :: G(RRHO) contrib.            0.157530076019 Eh   ::
         :::::::::::::::::::::::::::::::::::::::::::::::::::::

optimized geometry written to: xtbopt.xyz


           -------------------------------------------------
          | TOTAL ENERGY              -51.229495543627 Eh   |
          | TOTAL ENTHALPY            -51.009784719346 Eh   |
          | TOTAL FREE ENERGY         -51.071965467607 Eh   |
          | GRADIENT NORM               0.000236528259 Eh/α |
          | HOMO-LUMO GAP               3.455164753930 eV   |
           -------------------------------------------------

------------------------------------------------------------------------
 * finished run on 2026/07/25 at 12:24:10.001     
------------------------------------------------------------------------
 total:
 * wall-time:     0 d,  0 h,  0 min,  3.423 sec
 *  cpu-time:     0 d,  0 h,  0 min,  3.393 sec
 * ratio c/w:     0.991 speedup
 SCF:
 * wall-time:     0 d,  0 h,  0 min,  0.022 sec
 *  cpu-time:     0 d,  0 h,  0 min,  0.022 sec
 * ratio c/w:     0.997 speedup
 ANC optimizer:
 * wall-time:     0 d,  0 h,  0 min,  0.857 sec
 *  cpu-time:     0 d,  0 h,  0 min,  0.850 sec
 * ratio c/w:     0.993 speedup
 analytical hessian:
 * wall-time:     0 d,  0 h,  0 min,  2.536 sec
 *  cpu-time:     0 d,  0 h,  0 min,  2.513 sec
 * ratio c/w:     0.991 speedup

normal termination of xtb
Note: The following floating-point exceptions are signalling: IEEE_DIVIDE_BY_ZERO IEEE_UNDERFLOW_FLAG
