20
4-aminobenzylidenemalononitrile (C10H7N3) starting structure; built analytically from standard bond lengths (no force field available); twist 30 deg, amine N displaced 0.2 A out of plane
C      1.39150000     0.00000000     0.00000000
C      0.69575000     1.20507435     0.00000000
C     -0.69575000     1.20507435     0.00000000
C     -1.39150000     0.00000000     0.00000000
C     -0.69575000    -1.20507435     0.00000000
C      0.69575000    -1.20507435     0.00000000
H      1.23575000     2.14038179     0.00000000
H     -1.23575000     2.14038179     0.00000000
H     -1.23575000    -2.14038179     0.00000000
H      1.23575000    -2.14038179     0.00000000
C      2.85150000     0.00000000     0.00000000
H      3.31215391    -0.85552527    -0.49393774
C      3.71926327     0.89560883     0.51708000
C      5.13534661     0.72325459     0.41757123
N      6.28405757     0.58344276     0.33685083
C      3.27736897     2.07341275     1.19708541
N      2.91890926     3.02883411     1.74869819
N     -2.79150000     0.00000000     0.20000000
H     -3.29650000     0.87468566     0.00000000
H     -3.29650000    -0.87468566     0.00000000
