17
p-methoxybenzonitrile (C8H7NO) starting structure; built analytically from standard bond lengths (no force field available); twist 30 deg
C      1.39150000     0.00000000     0.00000000
C      0.69575000     1.20507435     0.00000000
C     -0.69575000     1.20507435     0.00000000
C     -1.39150000     0.00000000     0.00000000
C     -0.69575000    -1.20507435     0.00000000
C      0.69575000    -1.20507435     0.00000000
H      1.23575000     2.14038179     0.00000000
H     -1.23575000     2.14038179     0.00000000
H     -1.23575000    -2.14038179     0.00000000
H      1.23575000    -2.14038179     0.00000000
C      2.82150000     0.00000000     0.00000000
N      3.98150000     0.00000000     0.00000000
O     -2.75150000     0.00000000     0.00000000
C     -3.46650000     1.23841633     0.00000000
H     -3.20351318     1.81038902     0.88982311
H     -4.53824785     1.03977960     0.00000000
H     -3.20351318     1.81038902    -0.88982311
