35
OMe-substituted DCDHF (C17H13N3O2) starting structure; NMe2 -> OMe substitution on the DCDHF-Me2 B3LYP/def2-SVP minimum; kept planar
C      0.91896163     1.60177690     0.19984786
C     -0.45236393     1.58536993    -0.17865352
H     -1.22850958     1.41961977     0.56670093
C     -0.84257364     1.77705171    -1.49053918
H     -1.90903438     1.75048218    -1.70011563
C      0.08908846     2.00133488    -2.54059967
C      1.45406296     2.01533597    -2.14959524
H      2.23630331     2.18013939    -2.88700425
C      1.86180714     1.82515138    -0.84076022
H      2.92845442     1.85050772    -0.62372551
C     -0.32435246     2.20230073    -3.91762159
C     -1.60107558     2.21807518    -4.46055388
C     -2.83855013     2.03673938    -3.78098144
C      0.65077628     2.44703165    -5.07783251
N     -3.83351045     1.88533408    -3.20019093
O     -0.22285864     2.58533457    -6.23125737
C     -1.50546083     2.45700193    -5.89239266
C      1.55746496     1.25006588    -5.39685949
C      1.41355118     3.77599373    -4.98500009
H      0.96047161     0.33109075    -5.48939395
H      2.32111076     1.09194639    -4.62476230
H      2.06138291     1.43397575    -6.35702580
H      0.71697019     4.60497577    -4.79253432
H      1.91732660     3.96253578    -5.94473326
H      2.16881040     3.76495673    -4.18891480
C     -2.47352689     2.56185153    -6.87381261
C     -3.87443295     2.44136530    -6.62448818
C     -2.06758797     2.80523154    -8.22449706
N     -5.02489527     2.35300751    -6.48467528
N     -1.75135736     3.00274952    -9.32527841
O      1.30960596     1.41384919     1.48890961
C      2.69917115     1.43809301     1.82568969
H      3.22050749     0.65442085     1.27599308
H      2.81707937     1.27026086     2.89621761
H      3.12061029     2.40810314     1.56192956
