28
SMX conformer A; Blackmon and Closser (2026) supplement
N  -0.1754770000  0.2768272000  0.1567611000
C  -0.1272238000  0.1804307000  1.5160317000
C   1.1103090000  0.1051441000  2.1872530000
C   1.1588630000 -0.0384010000  3.5564465000
C  -1.3110905000  0.1104904000  2.2748037000
C  -1.2618259000 -0.0336408000  3.6459205000
C  -0.0271144000 -0.1150676000  4.2932474000
S   0.0497207000 -0.2205453000  6.0312488000
N   0.3295925000  1.3365915000  6.5989242000
C  -0.5278730000  2.3804310000  6.2592073000
C  -1.9483796000  2.3774546000  6.2256501000
C  -2.2694274000  3.6508773000  5.8821033000
O  -1.1417206000  4.3745912000  5.7240831000
N  -0.0259691000  3.5536263000  5.9522502000
C  -3.5567442000  4.3481678000  5.6655576000
O  -1.2419493000 -0.6098198000  6.5356022000
O   1.2294626000 -0.9427435000  6.4352617000
H   0.6592935000  0.5454209000 -0.3383583000
H  -1.0428148000  0.5484983000 -0.2769775000
H   2.0276984000  0.1594003000  1.6147882000
H   2.1150340000 -0.0938345000  4.0588619000
H  -2.2676128000  0.1691171000  1.7709162000
H  -2.1766147000 -0.0869362000  4.2181198000
H   1.3136515000  1.5799236000  6.5342810000
H  -2.6132219000  1.5603285000  6.4323619000
H  -4.3816980000  3.6567815000  5.8243571000
H  -3.6130708000  4.7393806000  4.6477258000
H  -3.6597230000  5.1879920000  6.3553878000
