      -----------------------------------------------------------      
     |                   =====================                   |     
     |                           x T B                           |     
     |                   =====================                   |     
     |                         S. Grimme                         |     
     |          Mulliken Center for Theoretical Chemistry        |     
     |                    University of Bonn                     |     
      -----------------------------------------------------------      

   * xtb version 6.7.1 (edcfbbe) compiled by 'runner@sat12-gn217-0cbadaec-b866-44ae-a866-732403219ae3-6E01A8DFFD18.local' on 2026-06-10

   xtb is free software: you can redistribute it and/or modify it under
   the terms of the GNU Lesser General Public License as published by
   the Free Software Foundation, either version 3 of the License, or
   (at your option) any later version.
   
   xtb is distributed in the hope that it will be useful,
   but WITHOUT ANY WARRANTY; without even the implied warranty of
   MERCHANTABILITY or FITNESS FOR A PARTICULAR PURPOSE.  See the
   GNU Lesser General Public License for more details.
   
   Cite this work as:
   * C. Bannwarth, E. Caldeweyher, S. Ehlert, A. Hansen, P. Pracht,
     J. Seibert, S. Spicher, S. Grimme, WIREs Comput. Mol. Sci., 2020, 11,
     e01493. DOI: 10.1002/wcms.1493
   
   for GFN2-xTB:
   * C. Bannwarth, S. Ehlert and S. Grimme., J. Chem. Theory Comput., 2019,
     15, 1652-1671. DOI: 10.1021/acs.jctc.8b01176
   for GFN1-xTB:
   * S. Grimme, C. Bannwarth, P. Shushkov, J. Chem. Theory Comput., 2017,
     13, 1989-2009. DOI: 10.1021/acs.jctc.7b00118
   for GFN0-xTB:
   * P. Pracht, E. Caldeweyher, S. Ehlert, S. Grimme, ChemRxiv, 2019, preprint.
     DOI: 10.26434/chemrxiv.8326202.v1
   for GFN-FF:
   * S. Spicher and S. Grimme, Angew. Chem. Int. Ed., 2020, 59, 15665-15673.
     DOI: 10.1002/anie.202004239
   
   for ALPB and GBSA implicit solvation:
   * S. Ehlert, M. Stahn, S. Spicher, S. Grimme, J. Chem. Theory Comput.,
     2021, 17, 4250-4261. DOI: 10.1021/acs.jctc.1c00471
   
   for ddCOSMO and CPCM-X implicit solvation:
   * M. Stahn, S. Ehlert, S. Grimme, J. Phys. Chem. A,
     2023, XX, XXXX-XXXX. DOI: 10.1021/acs.jpca.3c04382
   
   for DFT-D4:
   * E. Caldeweyher, C. Bannwarth and S. Grimme, J. Chem. Phys., 2017,
     147, 034112. DOI: 10.1063/1.4993215
   * E. Caldeweyher, S. Ehlert, A. Hansen, H. Neugebauer, S. Spicher,
     C. Bannwarth and S. Grimme, J. Chem. Phys., 2019, 150, 154122.
     DOI: 10.1063/1.5090222
   * E. Caldeweyher, J.-M. Mewes, S. Ehlert and S. Grimme, Phys. Chem. Chem. Phys.
     2020, 22, 8499-8512. DOI: 10.1039/D0CP00502A
   
   for sTDA-xTB:
   * S. Grimme and C. Bannwarth, J. Chem. Phys., 2016, 145, 054103.
     DOI: 10.1063/1.4959605
   
   in the mass-spec context:
   * V. Asgeirsson, C. Bauer and S. Grimme, Chem. Sci., 2017, 8, 4879.
     DOI: 10.1039/c7sc00601b
   * J. Koopman and S. Grimme, ACS Omega 2019, 4, 12, 15120-15133.
     DOI: 10.1021/acsomega.9b02011
   
   for metadynamics refer to:
   * S. Grimme, J. Chem. Theory Comput., 2019, 155, 2847-2862
     DOI: 10.1021/acs.jctc.9b00143
   
   for SPH calculations refer to:
   * S. Spicher and S. Grimme, J. Chem. Theory Comput., 2021, 17, 1701-1714
     DOI: 10.1021/acs.jctc.0c01306
   
   for ONIOM refer to:
   * C. Plett, A. Katbashev, S. Ehlert, S. Grimme, M. Bursch,
     Phys. Chem. Chem. Phys., 2023, 25, 17860-17868. DOI: 10.1039/D3CP02178E
   
   for DIPRO refer to:
   * J. Kohn, N. Gildemeister, S. Grimme, D. Fazzi, A. Hansen,
     J. Chem. Phys., 2023, just accepted.
   
   for PTB refer to:
   * S. Grimme, M. Mueller, A. Hansen, J. Chem. Phys., 2023, 158, 124111.
     DOI: 10.1063/5.0137838
   
   with help from (in alphabetical order)
   P. Atkinson, C. Bannwarth, F. Bohle, G. Brandenburg, E. Caldeweyher
   M. Checinski, S. Dohm, S. Ehlert, S. Ehrlich, I. Gerasimov, C. Hölzer
   A. Katbashev, J. Kohn, J. Koopman, C. Lavigne, S. Lehtola, F. März, M. Müller,
   F. Musil, H. Neugebauer, J. Pisarek, C. Plett, P. Pracht, F. Pultar,
   J. Seibert, P. Shushkov, S. Spicher, M. Stahn, M. Steiner, T. Strunk,
   J. Stückrath, T. Rose, and J. Unsleber
   
 * started run on 2026/07/25 at 12:23:57.348     
   ID    Z sym.   atoms
    1    7 N      1, 9, 14
    2    6 C      2-7, 10-12, 15
    3   16 S      8
    4    8 O      13, 16, 17
    5    1 H      18-28

           -------------------------------------------------
          |                Calculation Setup                |
           -------------------------------------------------

          program call               : /opt/homebrew/Caskroom/miniforge/base/envs/qchem/bin/xtb source.xyz --chrg 0 --uhf 0 --gfn 2 --alpb water --acc 0.2 --ohess tight --parallel 1 --json --ceasefiles -I control.inp
          coordinate file            : source.xyz
          omp threads                :                     1


           -------------------------------------------------
          |                 G F N 2 - x T B                 |
           -------------------------------------------------

        Reference                      10.1021/acs.jctc.8b01176
      * Hamiltonian:
        H0-scaling (s, p, d)           1.850000    2.230000    2.230000
        zeta-weighting                 0.500000
      * Dispersion:
        s8                             2.700000
        a1                             0.520000
        a2                             5.000000
        s9                             5.000000
      * Repulsion:
        kExp                           1.500000    1.000000
        rExp                           1.000000
      * Coulomb:
        alpha                          2.000000
        third order                    shell-resolved
        anisotropic                    true
        a3                             3.000000
        a5                             4.000000
        cn-shift                       1.200000
        cn-exp                         4.000000
        max-rad                        5.000000

      * Solvation model:               ALPB
        Solvent                        water
        Parameter file                 internal GFN2-xTB/ALPB
        Dielectric constant                8.0200E+01
        Reference state                gsolv [1 M gas/solution]
        Free energy shift                  1.0808E-03 Eh       6.7819E-01 kcal/mol
        Temperature                        2.9815E+02 K
        Density                            1.0000E+00 kg/L
        Solvent mass                       1.8000E+01 g/mol
        Interaction kernel             P16
        Born radius scaling (c1)           1.4744E+00
        Born radii integrator          GBOBC
        Born offset                        0.0000E+00 a0       0.0000E+00 AA
        H-bond correction              true
        Ion screening                  false
        Surface tension                    1.0000E-05 Eh       1.5569E+01 dyn/cm
        Grid points                               230 per atom

          ...................................................
          :                      SETUP                      :
          :.................................................:
          :  # basis functions                  85          :
          :  # atomic orbitals                  84          :
          :  # shells                           46          :
          :  # electrons                        90          :
          :  max. iterations                   250          :
          :  Hamiltonian                  GFN2-xTB          :
          :  restarted?                      false          :
          :  GBSA solvation                   true          :
          :  PC potential                    false          :
          :  electronic temp.          300.0000000     K    :
          :  accuracy                    0.2000000          :
          :  -> integral cutoff          0.3198970E+02      :
          :  -> integral neglect         0.2000000E-08      :
          :  -> SCF convergence          0.2000000E-06 Eh   :
          :  -> wf. convergence          0.2000000E-04 e    :
          :  Broyden damping             0.4000000          :
          :  net charge                          0          :
          :  unpaired electrons                  0          :
          ...................................................

 iter      E             dE          RMSdq      gap      omega  full diag
   1    -51.7744053 -0.517744E+02  0.551E+00    2.97       0.0  T
   2    -51.8408941 -0.664889E-01  0.337E+00    3.31       1.0  T
   3    -51.8376431  0.325102E-02  0.153E+00    3.43       1.0  T
   4    -51.8531798 -0.155367E-01  0.469E-01    3.30       1.0  T
   5    -51.8554111 -0.223125E-02  0.211E-01    3.34       1.0  T
   6    -51.8555369 -0.125853E-03  0.116E-01    3.32       1.0  T
   7    -51.8555863 -0.493458E-04  0.565E-02    3.33       1.0  T
   8    -51.8556041 -0.178532E-04  0.246E-02    3.33       1.0  T
   9    -51.8556067 -0.254574E-05  0.706E-03    3.33       2.7  T
  10    -51.8556069 -0.227565E-06  0.371E-03    3.33       5.1  T
  11    -51.8556070 -0.115118E-06  0.157E-03    3.33      12.0  T
  12    -51.8556070 -0.473858E-08  0.391E-04    3.33      48.3  T
  13    -51.8556070 -0.604253E-09  0.149E-04    3.33     126.8  T
  14    -51.8556070 -0.674092E-10  0.719E-05    3.33     262.8  T

   *** convergence criteria satisfied after 14 iterations ***

         #    Occupation            Energy/Eh            Energy/eV
      -------------------------------------------------------------
         1        2.0000           -0.7950025             -21.6331
       ...           ...                  ...                  ...
        39        2.0000           -0.4429030             -12.0520
        40        2.0000           -0.4370216             -11.8920
        41        2.0000           -0.4259692             -11.5912
        42        2.0000           -0.4237075             -11.5297
        43        2.0000           -0.4218817             -11.4800
        44        2.0000           -0.4143471             -11.2750
        45        2.0000           -0.3771611             -10.2631 (HOMO)
        46                         -0.2547000              -6.9307 (LUMO)
        47                         -0.2449018              -6.6641
        48                         -0.2390726              -6.5055
        49                         -0.1839468              -5.0054
        50                         -0.1304536              -3.5498
       ...                                ...                  ...
        84                          1.1694139              31.8214
      -------------------------------------------------------------
                  HL-Gap            0.1224611 Eh            3.3323 eV
             Fermi-level           -0.3159306 Eh           -8.5969 eV

 SCC (total)                   0 d,  0 h,  0 min,  0.021 sec
 SCC setup                      ...        0 min,  0.000 sec (  2.061%)
 Dispersion                     ...        0 min,  0.000 sec (  0.508%)
 classical contributions        ...        0 min,  0.000 sec (  0.191%)
 integral evaluation            ...        0 min,  0.002 sec ( 10.898%)
 iterations                     ...        0 min,  0.011 sec ( 50.749%)
 molecular gradient             ...        0 min,  0.007 sec ( 34.876%)
 printout                       ...        0 min,  0.000 sec (  0.651%)

         :::::::::::::::::::::::::::::::::::::::::::::::::::::
         ::                     SUMMARY                     ::
         :::::::::::::::::::::::::::::::::::::::::::::::::::::
         :: total energy             -51.225546731967 Eh    ::
         :: total w/o Gsasa/hb       -51.216016688570 Eh    ::
         :: gradient norm              0.050201860955 Eh/a0 ::
         :: HOMO-LUMO gap              3.332335957009 eV    ::
         ::.................................................::
         :: SCC energy               -51.855157587522 Eh    ::
         :: -> isotropic ES            0.125378982232 Eh    ::
         :: -> anisotropic ES         -0.018416038572 Eh    ::
         :: -> anisotropic XC          0.021817907590 Eh    ::
         :: -> dispersion             -0.031022743663 Eh    ::
         :: -> Gsolv                  -0.043811362609 Eh    ::
         ::    -> Gelec               -0.034281319212 Eh    ::
         ::    -> Gsasa               -0.000871269153 Eh    ::
         ::    -> Ghb                 -0.009739533943 Eh    ::
         ::    -> Gshift               0.001080759698 Eh    ::
         :: repulsion energy           0.629610855555 Eh    ::
         :: add. restraining           0.000000000000 Eh    ::
         :: total charge               0.000000000000 e     ::
         :::::::::::::::::::::::::::::::::::::::::::::::::::::

      ----------------------------------------------------------- 
     |                   =====================                   |
     |                        A N C O P T                        |
     |                   =====================                   |
     |               Approximate Normal Coordinate               |
     |                Rational Function Optimizer                |
      ----------------------------------------------------------- 

Optimization log is written to '/dev/null'
      ----------------------------------------------------------- 
     |                   =====================                   |
     |                        A N C O P T                        |
     |                   =====================                   |
     |               Approximate Normal Coordinate               |
     |                Rational Function Optimizer                |
      ----------------------------------------------------------- 

          ...................................................
          :                      SETUP                      :
          :.................................................:
          :   optimization level             tight          :
          :   max. optcycles                   200          :
          :   ANC micro-cycles                  20          :
          :   degrees of freedom                78          :
          :.................................................:
          :   RF solver                   davidson          :
          :   write xtbopt.log                true          :
          :   linear?                        false          :
          :   energy convergence         0.1000000E-05 Eh   :
          :   grad. convergence          0.8000000E-03 Eh/α :
          :   maxmium RF displ.          1.0000000          :
          :   Hlow (freq-cutoff)         0.1000000E-01      :
          :   Hmax (freq-cutoff)         5.0000000          :
          :   S6 in model hess.         20.0000000          :
          ...................................................

generating ANC from exact Hessian ...
Using Lindh-Hessian (1995)
 Shifting diagonal of input Hessian by    9.5770343122967474E-003
 Lowest  eigenvalues of input Hessian
    0.000000    0.000000    0.000000    0.000000    0.000000    0.000000
    0.010000    0.011233    0.011448    0.012886    0.015685    0.016743
    0.021256    0.023222    0.024868    0.026235    0.028303    0.031732
 Highest eigenvalues
    1.986585    1.992220    2.101864    2.135624    2.609799    3.525790


........................................................................
.............................. CYCLE    1 ..............................
........................................................................

 iter      E             dE          RMSdq      gap      omega  full diag
   1    -51.8556070 -0.518556E+02  0.181E-05    3.33       0.0  T
   2    -51.8556070 -0.143530E-11  0.113E-05    3.33    1677.4  T
   3    -51.8556070 -0.184741E-12  0.726E-06    3.33    2603.8  T
     SCC iter.                  ...        0 min,  0.003 sec
     gradient                   ...        0 min,  0.007 sec
 * total energy  :   -51.2255467 Eh     change       -0.2773248E-10 Eh
   gradient norm :     0.0502017 Eh/α   predicted     0.0000000E+00 (-100.00%)
   displ. norm   :     0.1236306 α      lambda       -0.3076728E-02
   maximum displ.:     0.0413634 α      in ANC's #6, #38, #19, ...

........................................................................
.............................. CYCLE    2 ..............................
........................................................................

 iter      E             dE          RMSdq      gap      omega  full diag
   1    -51.8686256 -0.518686E+02  0.127E-01    3.38       0.0  T
   2    -51.8686829 -0.573158E-04  0.714E-02    3.39       1.0  T
   3    -51.8686841 -0.120524E-05  0.329E-02    3.39       1.0  T
   4    -51.8686893 -0.525773E-05  0.935E-03    3.39       2.0  T
   5    -51.8686902 -0.821247E-06  0.274E-03    3.39       6.9  T
   6    -51.8686902 -0.692223E-07  0.138E-03    3.39      13.7  T
   7    -51.8686902 -0.796184E-08  0.586E-04    3.39      32.3  T
   8    -51.8686902 -0.224702E-08  0.276E-04    3.39      68.5  T
   9    -51.8686902 -0.278824E-09  0.988E-05    3.39     191.4  T
  10    -51.8686902 -0.433502E-10  0.490E-05    3.39     386.0  T
     SCC iter.                  ...        0 min,  0.008 sec
     gradient                   ...        0 min,  0.007 sec
 * total energy  :   -51.2278002 Eh     change       -0.2253486E-02 Eh
   gradient norm :     0.0268847 Eh/α   predicted    -0.1561928E-02 ( -30.69%)
   displ. norm   :     0.1494288 α      lambda       -0.1754727E-02
   maximum displ.:     0.0747753 α      in ANC's #6, #3, #19, ...

........................................................................
.............................. CYCLE    3 ..............................
........................................................................

 iter      E             dE          RMSdq      gap      omega  full diag
   1    -51.8752905 -0.518753E+02  0.135E-01    3.44       0.0  T
   2    -51.8753731 -0.825374E-04  0.720E-02    3.45       1.0  T
   3    -51.8753794 -0.633099E-05  0.354E-02    3.45       1.0  T
   4    -51.8753840 -0.457285E-05  0.109E-02    3.45       1.7  T
   5    -51.8753845 -0.560366E-06  0.408E-03    3.45       4.6  T
   6    -51.8753847 -0.110289E-06  0.180E-03    3.45      10.5  T
   7    -51.8753847 -0.150712E-07  0.857E-04    3.45      22.0  T
   8    -51.8753847 -0.466814E-08  0.393E-04    3.45      48.1  T
   9    -51.8753847 -0.596650E-09  0.120E-04    3.45     157.1  T
  10    -51.8753847 -0.541718E-10  0.622E-05    3.45     304.0  T
     SCC iter.                  ...        0 min,  0.008 sec
     gradient                   ...        0 min,  0.007 sec
 * total energy  :   -51.2288084 Eh     change       -0.1008195E-02 Eh
   gradient norm :     0.0101712 Eh/α   predicted    -0.8970012E-03 ( -11.03%)
   displ. norm   :     0.0816954 α      lambda       -0.2599798E-03
   maximum displ.:     0.0454252 α      in ANC's #6, #3, #5, ...

........................................................................
.............................. CYCLE    4 ..............................
........................................................................

 iter      E             dE          RMSdq      gap      omega  full diag
   1    -51.8740438 -0.518740E+02  0.496E-02    3.45       0.0  T
   2    -51.8740489 -0.511302E-05  0.251E-02    3.45       1.0  T
   3    -51.8740491 -0.173796E-06  0.106E-02    3.45       1.8  T
   4    -51.8740499 -0.889822E-06  0.395E-03    3.45       4.8  T
   5    -51.8740500 -0.210668E-07  0.157E-03    3.45      12.0  T
   6    -51.8740500 -0.198264E-07  0.483E-04    3.45      39.1  T
   7    -51.8740500 -0.123540E-08  0.229E-04    3.45      82.7  T
   8    -51.8740500 -0.243567E-09  0.870E-05    3.45     217.2  T
   9    -51.8740500 -0.237890E-10  0.329E-05    3.45     574.4  T
     SCC iter.                  ...        0 min,  0.007 sec
     gradient                   ...        0 min,  0.007 sec
 * total energy  :   -51.2290106 Eh     change       -0.2021765E-03 Eh
   gradient norm :     0.0085448 Eh/α   predicted    -0.1308606E-03 ( -35.27%)
   displ. norm   :     0.1522310 α      lambda       -0.3207194E-03
   maximum displ.:     0.0859614 α      in ANC's #6, #3, #5, ...

........................................................................
.............................. CYCLE    5 ..............................
........................................................................

 iter      E             dE          RMSdq      gap      omega  full diag
   1    -51.8714540 -0.518715E+02  0.778E-02    3.44       0.0  T
   2    -51.8714595 -0.555805E-05  0.385E-02    3.44       1.0  T
   3    -51.8714592  0.351306E-06  0.137E-02    3.44       1.4  T
   4    -51.8714608 -0.163484E-05  0.614E-03    3.44       3.1  T
   5    -51.8714609 -0.778189E-07  0.178E-03    3.44      10.6  T
   6    -51.8714609 -0.268368E-07  0.622E-04    3.44      30.4  T
   7    -51.8714609 -0.185688E-08  0.244E-04    3.44      77.5  T
   8    -51.8714609 -0.166381E-09  0.976E-05    3.44     193.7  T
   9    -51.8714609 -0.296509E-10  0.345E-05    3.44     547.9  T
     SCC iter.                  ...        0 min,  0.007 sec
     gradient                   ...        0 min,  0.007 sec
 * total energy  :   -51.2292133 Eh     change       -0.2027232E-03 Eh
   gradient norm :     0.0062943 Eh/α   predicted    -0.1640807E-03 ( -19.06%)
   displ. norm   :     0.0881652 α      lambda       -0.9284073E-04
   maximum displ.:     0.0535523 α      in ANC's #3, #6, #1, ...

........................................................................
.............................. CYCLE    6 ..............................
........................................................................

 iter      E             dE          RMSdq      gap      omega  full diag
   1    -51.8715292 -0.518715E+02  0.377E-02    3.43       0.0  T
   2    -51.8715313 -0.212570E-05  0.190E-02    3.44       1.0  T
   3    -51.8715313  0.611949E-07  0.795E-03    3.44       2.4  T
   4    -51.8715317 -0.469910E-06  0.297E-03    3.44       6.4  T
   5    -51.8715318 -0.330188E-07  0.108E-03    3.44      17.6  T
   6    -51.8715318 -0.623965E-08  0.371E-04    3.44      51.0  T
   7    -51.8715318 -0.821501E-09  0.157E-04    3.44     120.7  T
   8    -51.8715318 -0.469385E-10  0.653E-05    3.44     289.5  T
     SCC iter.                  ...        0 min,  0.006 sec
     gradient                   ...        0 min,  0.007 sec
 * total energy  :   -51.2292811 Eh     change       -0.6782100E-04 Eh
   gradient norm :     0.0042971 Eh/α   predicted    -0.4678283E-04 ( -31.02%)
   displ. norm   :     0.0950027 α      lambda       -0.7268025E-04
   maximum displ.:     0.0615713 α      in ANC's #3, #6, #1, ...

........................................................................
.............................. CYCLE    7 ..............................
........................................................................

 iter      E             dE          RMSdq      gap      omega  full diag
   1    -51.8728518 -0.518729E+02  0.355E-02    3.43       0.0  T
   2    -51.8728552 -0.349041E-05  0.192E-02    3.43       1.0  T
   3    -51.8728555 -0.264433E-06  0.101E-02    3.43       1.9  T
   4    -51.8728561 -0.549078E-06  0.253E-03    3.43       7.5  T
   5    -51.8728561 -0.343082E-07  0.116E-03    3.43      16.2  T
   6    -51.8728561 -0.791342E-08  0.430E-04    3.43      44.0  T
   7    -51.8728561 -0.823043E-09  0.179E-04    3.43     105.4  T
   8    -51.8728561 -0.682903E-10  0.738E-05    3.43     255.9  T
     SCC iter.                  ...        0 min,  0.006 sec
     gradient                   ...        0 min,  0.007 sec
 * total energy  :   -51.2293295 Eh     change       -0.4841120E-04 Eh
   gradient norm :     0.0029079 Eh/α   predicted    -0.3667766E-04 ( -24.24%)
   displ. norm   :     0.0637881 α      lambda       -0.3001592E-04
   maximum displ.:     0.0428537 α      in ANC's #3, #1, #6, ...

........................................................................
.............................. CYCLE    8 ..............................
........................................................................

 iter      E             dE          RMSdq      gap      omega  full diag
   1    -51.8739875 -0.518740E+02  0.213E-02    3.43       0.0  T
   2    -51.8739888 -0.129521E-05  0.121E-02    3.43       1.6  T
   3    -51.8739890 -0.129123E-06  0.667E-03    3.43       2.8  T
   4    -51.8739892 -0.236657E-06  0.120E-03    3.43      15.7  T
   5    -51.8739892 -0.146226E-07  0.564E-04    3.43      33.5  T
   6    -51.8739892 -0.112769E-08  0.247E-04    3.43      76.4  T
   7    -51.8739892 -0.336236E-09  0.910E-05    3.43     207.7  T
   8    -51.8739892 -0.132374E-10  0.396E-05    3.43     477.4  T
     SCC iter.                  ...        0 min,  0.006 sec
     gradient                   ...        0 min,  0.007 sec
 * total energy  :   -51.2293518 Eh     change       -0.2224913E-04 Eh
   gradient norm :     0.0028911 Eh/α   predicted    -0.1510615E-04 ( -32.10%)
   displ. norm   :     0.0720288 α      lambda       -0.2776553E-04
   maximum displ.:     0.0476100 α      in ANC's #3, #1, #5, ...

........................................................................
.............................. CYCLE    9 ..............................
........................................................................

 iter      E             dE          RMSdq      gap      omega  full diag
   1    -51.8748435 -0.518748E+02  0.232E-02    3.43       0.0  T
   2    -51.8748446 -0.103771E-05  0.130E-02    3.43       1.5  T
   3    -51.8748445  0.565618E-07  0.669E-03    3.43       2.8  T
   4    -51.8748449 -0.374776E-06  0.133E-03    3.43      14.2  T
   5    -51.8748449 -0.122990E-07  0.559E-04    3.43      33.8  T
   6    -51.8748449 -0.585288E-09  0.230E-04    3.43      82.3  T
   7    -51.8748449 -0.376758E-09  0.895E-05    3.43     211.1  T
   8    -51.8748449 -0.221902E-10  0.388E-05    3.43     487.0  T
     SCC iter.                  ...        0 min,  0.006 sec
     gradient                   ...        0 min,  0.007 sec
 * total energy  :   -51.2293721 Eh     change       -0.2026943E-04 Eh
   gradient norm :     0.0029623 Eh/α   predicted    -0.1395690E-04 ( -31.14%)
   displ. norm   :     0.0773597 α      lambda       -0.2611400E-04
   maximum displ.:     0.0497943 α      in ANC's #1, #3, #9, ...

........................................................................
.............................. CYCLE   10 ..............................
........................................................................

 iter      E             dE          RMSdq      gap      omega  full diag
   1    -51.8751580 -0.518752E+02  0.246E-02    3.43       0.0  T
   2    -51.8751587 -0.764745E-06  0.136E-02    3.43       1.4  T
   3    -51.8751586  0.150994E-06  0.570E-03    3.43       3.3  T
   4    -51.8751589 -0.360754E-06  0.164E-03    3.43      11.5  T
   5    -51.8751590 -0.181828E-07  0.532E-04    3.43      35.5  T
   6    -51.8751590 -0.474422E-09  0.213E-04    3.43      88.6  T
   7    -51.8751590 -0.187676E-09  0.865E-05    3.43     218.4  T
   8    -51.8751590 -0.368061E-10  0.420E-05    3.43     450.4  T
     SCC iter.                  ...        0 min,  0.006 sec
     gradient                   ...        0 min,  0.007 sec
 * total energy  :   -51.2293921 Eh     change       -0.2001125E-04 Eh
   gradient norm :     0.0026442 Eh/α   predicted    -0.1313722E-04 ( -34.35%)
   displ. norm   :     0.1055088 α      lambda       -0.2836951E-04
   maximum displ.:     0.0695497 α      in ANC's #1, #3, #2, ...

........................................................................
.............................. CYCLE   11 ..............................
........................................................................

 iter      E             dE          RMSdq      gap      omega  full diag
   1    -51.8747996 -0.518748E+02  0.323E-02    3.43       0.0  T
   2    -51.8748005 -0.930355E-06  0.182E-02    3.43       1.0  T
   3    -51.8748004  0.130048E-06  0.570E-03    3.43       3.3  T
   4    -51.8748008 -0.387524E-06  0.191E-03    3.43       9.9  T
   5    -51.8748008 -0.258106E-07  0.695E-04    3.43      27.2  T
   6    -51.8748008 -0.142920E-08  0.289E-04    3.43      65.5  T
   7    -51.8748008 -0.437524E-09  0.879E-05    3.43     215.0  T
   8    -51.8748008 -0.331823E-10  0.469E-05    3.43     403.0  T
     SCC iter.                  ...        0 min,  0.007 sec
     gradient                   ...        0 min,  0.007 sec
 * total energy  :   -51.2294115 Eh     change       -0.1941987E-04 Eh
   gradient norm :     0.0025349 Eh/α   predicted    -0.1434482E-04 ( -26.13%)
   displ. norm   :     0.0685794 α      lambda       -0.1659579E-04
   maximum displ.:     0.0489788 α      in ANC's #1, #3, #2, ...

........................................................................
.............................. CYCLE   12 ..............................
........................................................................

 iter      E             dE          RMSdq      gap      omega  full diag
   1    -51.8745398 -0.518745E+02  0.204E-02    3.43       0.0  T
   2    -51.8745402 -0.356394E-06  0.115E-02    3.43       1.6  T
   3    -51.8745402  0.199192E-07  0.376E-03    3.43       5.0  T
   4    -51.8745403 -0.116596E-06  0.110E-03    3.43      17.2  T
   5    -51.8745403 -0.673415E-08  0.458E-04    3.43      41.2  T
   6    -51.8745403 -0.623984E-09  0.175E-04    3.43     108.1  T
   7    -51.8745403 -0.312362E-09  0.564E-05    3.43     334.9  T
     SCC iter.                  ...        0 min,  0.006 sec
     gradient                   ...        0 min,  0.008 sec
 * total energy  :   -51.2294236 Eh     change       -0.1206924E-04 Eh
   gradient norm :     0.0019228 Eh/α   predicted    -0.8338320E-05 ( -30.91%)
   displ. norm   :     0.1255293 α      lambda       -0.1511685E-04
   maximum displ.:     0.0873275 α      in ANC's #1, #3, #2, ...

........................................................................
.............................. CYCLE   13 ..............................
........................................................................

 iter      E             dE          RMSdq      gap      omega  full diag
   1    -51.8736667 -0.518737E+02  0.378E-02    3.43       0.0  T
   2    -51.8736678 -0.103564E-05  0.217E-02    3.43       1.0  T
   3    -51.8736676  0.185832E-06  0.651E-03    3.43       2.9  T
   4    -51.8736681 -0.530307E-06  0.182E-03    3.43      10.4  T
   5    -51.8736681 -0.151391E-07  0.816E-04    3.43      23.2  T
   6    -51.8736681 -0.198201E-08  0.255E-04    3.43      74.2  T
   7    -51.8736681 -0.690854E-09  0.835E-05    3.43     226.4  T
   8    -51.8736681 -0.321521E-10  0.333E-05    3.43     567.1  T
     SCC iter.                  ...        0 min,  0.006 sec
     gradient                   ...        0 min,  0.007 sec
 * total energy  :   -51.2294348 Eh     change       -0.1119901E-04 Eh
   gradient norm :     0.0023259 Eh/α   predicted    -0.7614825E-05 ( -32.00%)
   displ. norm   :     0.0242177 α      lambda       -0.9072618E-05
   maximum displ.:     0.0158933 α      in ANC's #6, #1, #2, ...

........................................................................
.............................. CYCLE   14 ..............................
........................................................................

 iter      E             dE          RMSdq      gap      omega  full diag
   1    -51.8741652 -0.518742E+02  0.745E-03    3.43       0.0  T
   2    -51.8741653 -0.133507E-06  0.411E-03    3.43       4.6  T
   3    -51.8741653  0.578727E-08  0.209E-03    3.43       9.1  T
   4    -51.8741653 -0.395160E-07  0.572E-04    3.43      33.0  T
   5    -51.8741653 -0.155730E-08  0.211E-04    3.43      89.4  T
   6    -51.8741653 -0.240767E-09  0.737E-05    3.43     256.3  T
   7    -51.8741653 -0.299138E-10  0.326E-05    3.43     578.9  T
     SCC iter.                  ...        0 min,  0.006 sec
     gradient                   ...        0 min,  0.008 sec
 * total energy  :   -51.2294400 Eh     change       -0.5251410E-05 Eh
   gradient norm :     0.0017397 Eh/α   predicted    -0.4544852E-05 ( -13.45%)
   displ. norm   :     0.0378074 α      lambda       -0.5956422E-05
   maximum displ.:     0.0256180 α      in ANC's #1, #6, #2, ...

........................................................................
.............................. CYCLE   15 ..............................
........................................................................

 iter      E             dE          RMSdq      gap      omega  full diag
   1    -51.8746433 -0.518746E+02  0.125E-02    3.43       0.0  T
   2    -51.8746436 -0.309719E-06  0.695E-03    3.43       2.7  T
   3    -51.8746436 -0.104869E-07  0.315E-03    3.43       6.0  T
   4    -51.8746437 -0.597880E-07  0.103E-03    3.43      18.4  T
   5    -51.8746437 -0.427413E-08  0.387E-04    3.43      48.9  T
   6    -51.8746437 -0.829097E-09  0.144E-04    3.43     131.0  T
   7    -51.8746437 -0.140567E-09  0.583E-05    3.43     323.9  T
     SCC iter.                  ...        0 min,  0.005 sec
     gradient                   ...        0 min,  0.007 sec
 * total energy  :   -51.2294455 Eh     change       -0.5441651E-05 Eh
   gradient norm :     0.0010056 Eh/α   predicted    -0.2984852E-05 ( -45.15%)
   displ. norm   :     0.0374173 α      lambda       -0.2243776E-05
   maximum displ.:     0.0261937 α      in ANC's #1, #6, #2, ...

........................................................................
.............................. CYCLE   16 ..............................
........................................................................

 iter      E             dE          RMSdq      gap      omega  full diag
   1    -51.8745220 -0.518745E+02  0.947E-03    3.43       0.0  T
   2    -51.8745221 -0.775565E-07  0.533E-03    3.43       3.5  T
   3    -51.8745221  0.105552E-07  0.174E-03    3.43      10.9  T
   4    -51.8745221 -0.352018E-07  0.610E-04    3.43      31.0  T
   5    -51.8745221 -0.183163E-08  0.214E-04    3.43      88.4  T
   6    -51.8745221 -0.752465E-10  0.668E-05    3.43     282.8  T
   7    -51.8745221 -0.397904E-10  0.309E-05    3.43     612.2  T
     SCC iter.                  ...        0 min,  0.006 sec
     gradient                   ...        0 min,  0.008 sec
 * total energy  :   -51.2294473 Eh     change       -0.1880605E-05 Eh
   gradient norm :     0.0007790 Eh/α   predicted    -0.1123036E-05 ( -40.28%)
   displ. norm   :     0.0272393 α      lambda       -0.1413678E-05
   maximum displ.:     0.0182504 α      in ANC's #1, #6, #2, ...

........................................................................
.............................. CYCLE   17 ..............................
........................................................................

 iter      E             dE          RMSdq      gap      omega  full diag
   1    -51.8745157 -0.518745E+02  0.611E-03    3.43       0.0  T
   2    -51.8745158 -0.511708E-07  0.344E-03    3.43       5.5  T
   3    -51.8745158  0.313718E-08  0.112E-03    3.43      16.9  T
   4    -51.8745158 -0.124568E-07  0.441E-04    3.43      42.9  T
   5    -51.8745158 -0.113801E-08  0.147E-04    3.43     128.2  T
   6    -51.8745158 -0.100016E-09  0.669E-05    3.43     282.6  T
     SCC iter.                  ...        0 min,  0.005 sec
     gradient                   ...        0 min,  0.007 sec
 * total energy  :   -51.2294483 Eh     change       -0.9758962E-06 Eh
   gradient norm :     0.0006250 Eh/α   predicted    -0.7108029E-06 ( -27.16%)
   displ. norm   :     0.0097004 α      lambda       -0.5730348E-06
   maximum displ.:     0.0063307 α      in ANC's #4, #1, #3, ...

   *** GEOMETRY OPTIMIZATION CONVERGED AFTER 17 ITERATIONS ***

------------------------------------------------------------------------
 total energy gain   :        -0.0039016 Eh       -2.4483 kcal/mol
 total RMSD          :         0.1933213 a0        0.1023 Å
 total power (kW/mol):        -0.6025647 (step)  -35.8766 (real)
------------------------------------------------------------------------

 ANCopt (total)                0 d,  0 h,  0 min,  0.286 sec
 optimizer setup                ...        0 min,  0.000 sec (  0.035%)
 model hessian                  ...        0 min,  0.003 sec (  0.924%)
 ANC generation                 ...        0 min,  0.000 sec (  0.171%)
 coordinate transformation      ...        0 min,  0.000 sec (  0.030%)
 single point calculation       ...        0 min,  0.280 sec ( 97.899%)
 optimization log               ...        0 min,  0.001 sec (  0.396%)
 hessian update                 ...        0 min,  0.000 sec (  0.045%)
 rational function              ...        0 min,  0.001 sec (  0.353%)

================
 final structure:
================
28
 xtb: 6.7.1 (edcfbbe)
N           -0.20781713460361        0.43637840412269        0.20375278807508
C           -0.15902891778523        0.26692508719109        1.53700102416075
C            1.07600521618364        0.13408873830159        2.20166766799793
C            1.12311555893578       -0.02480972262246        3.56606150019513
C           -1.34074253241492        0.22213806508591        2.30183351556384
C           -1.28751165732954        0.05903801833091        3.66610183563089
C           -0.05737948600604       -0.06296081917024        4.29299609718594
S            0.03593558931471       -0.19982763093430        6.04435469833163
N            0.37096151445768        1.35288391091314        6.61620444115133
C           -0.46449607534410        2.38617266621664        6.27206192064910
C           -1.88044691781231        2.33045921069382        6.17346529827795
C           -2.23467162806599        3.60545104640430        5.84008860543602
O           -1.12425205439147        4.36047600817522        5.74858973619308
N           -0.02226053524409        3.59716316742367        6.01189388108117
C           -3.54223486146780        4.24569050113366        5.57779975091429
O           -1.23812494395701       -0.59811796767760        6.59950808978602
O            1.18493804802081       -0.97934184232475        6.45008092605576
H            0.63844600477239        0.43410866748378       -0.33605497462151
H           -1.09259112430905        0.49862479111225       -0.26512005425820
H            1.99002826822832        0.15844210310368        1.63076247616416
H            2.05713181559653       -0.14013409158232        4.09184974281900
H           -2.29468860240175        0.31395587320284        1.80848064276058
H           -2.18153393920961        0.00732584745653        4.26527053261339
H            1.35281659247936        1.58717182254319        6.59855426022472
H           -2.49105875058373        1.47329175797273        6.35193756738191
H           -4.33699795495189        3.52314293236517        5.72379040533436
H           -3.56863429087193        4.62384111322901        4.55832155889010
H           -3.68083280123957        5.08890854185049        6.25056236600599

 Bond Distances (Angstroems)
 ---------------------------
N1-C2=1.3449         N1-H18=1.0038        N1-H19=1.0033        C2-N1=1.3449         C2-C3=1.4088         C2-C5=1.4083         
C3-C2=1.4088         C3-C4=1.3744         C3-H20=1.0779        C4-C3=1.3744         C4-C7=1.3869         C4-H21=1.0780        
C5-C2=1.4083         C5-C6=1.3750         C5-H22=1.0779        C6-C5=1.3750         C6-C7=1.3860         C6-H23=1.0775        
C7-C4=1.3869         C7-C6=1.3860         C7-S8=1.7592         S8-C7=1.7592         S8-N9=1.6882         S8-O16=1.4457        
S8-O17=1.4465        N9-S8=1.6882         N9-C10=1.3726        N9-H24=1.0096        C10-N9=1.3726        C10-C11=1.4205       
C10-N14=1.3152       C11-C10=1.4205       C11-C12=1.3646       C11-H25=1.0674       C12-C11=1.3646       C12-O13=1.3459       
C12-C15=1.4793       O13-C12=1.3459       O13-N14=1.3661       N14-C10=1.3152       N14-O13=1.3661       C15-C12=1.4793       
C15-H26=1.0840       C15-H27=1.0877       C15-H28=1.0876       O16-S8=1.4457        O17-S8=1.4465        H18-N1=1.0038        
H19-N1=1.0033        H20-C3=1.0779        H21-C4=1.0780        H22-C5=1.0779        H23-C6=1.0775        H24-N9=1.0096        
H25-C11=1.0674       H26-C15=1.0840       H27-C15=1.0877       H28-C15=1.0876       
 C  H  Rav=1.0798 sigma=0.0062  Rmin=1.0674  Rmax=1.0877     8
 C  C  Rav=1.4004 sigma=0.0329  Rmin=1.3646  Rmax=1.4793     9
 N  H  Rav=1.0055 sigma=0.0029  Rmin=1.0033  Rmax=1.0096     3
 N  C  Rav=1.3442 sigma=0.0234  Rmin=1.3152  Rmax=1.3726     3
 O  C  Rav=1.3459 sigma=0.0000  Rmin=1.3459  Rmax=1.3459     1
 O  N  Rav=1.3661 sigma=0.0000  Rmin=1.3661  Rmax=1.3661     1
 S  C  Rav=1.7592 sigma=0.0000  Rmin=1.7592  Rmax=1.7592     1
 S  N  Rav=1.6882 sigma=0.0000  Rmin=1.6882  Rmax=1.6882     1
 S  O  Rav=1.4461 sigma=0.0004  Rmin=1.4457  Rmax=1.4465     2

 selected bond angles (degree)
 --------------------
H18-N1-C2=120.15               H19-N1-C2=120.21               H19-N1-H18=119.49              C3-C2-N1=120.76                
C5-C2-N1=120.79                C5-C2-C3=118.45                C4-C3-C2=120.62                H20-C3-C2=119.43               
H20-C3-C4=119.95               C7-C4-C3=119.63                H21-C4-C3=121.75               H21-C4-C7=118.61               
C6-C5-C2=120.67                H22-C5-C2=119.43               H22-C5-C6=119.90               C7-C6-C5=119.57                
H23-C6-C5=121.69               H23-C6-C7=118.73               C6-C7-C4=121.06                S8-C7-C4=118.61                
S8-C7-C6=120.28                N9-S8-C7=106.03                O16-S8-C7=110.92               O16-S8-N9=107.35               
O17-S8-C7=111.30               O17-S8-N9=104.06               O17-S8-O16=116.35              C10-N9-S8=119.12               
H24-N9-S8=113.61               H24-N9-C10=114.38              C11-C10-N9=126.48              N14-C10-N9=122.55              
N14-C10-C11=110.95             

 selected dihedral angles (degree)
 ---------------------------------
C3-C2-N1-H18=  2.38           C3-C2-N1-H19=177.90           C5-C2-N1-H18=182.18           C5-C2-N1-H19=357.71           
C4-C3-C2-N1=179.31            C4-C3-C2-C5=359.50            H20-C3-C2-N1=359.34           H20-C3-C2-C5=179.53           
C7-C4-C3-C2=  0.41            C7-C4-C3-H20=180.37           H21-C4-C3-C2=179.24           H21-C4-C3-H20=359.21          
C6-C5-C2-N1=180.50            C6-C5-C2-C3=  0.31            H22-C5-C2-N1=  0.69           H22-C5-C2-C3=180.50           
C7-C6-C5-C2=359.97            C7-C6-C5-H22=179.78           H23-C6-C5-C2=180.96           H23-C6-C5-H22=  0.76          
C6-C7-C4-C3=359.89            C6-C7-C4-H21=181.01           S8-C7-C4-C3=182.52            S8-C7-C4-H21=  3.65           
C4-C7-C6-C5=359.92            C4-C7-C6-H23=178.97           S8-C7-C6-C5=177.25            S8-C7-C6-H23=356.29           
N9-S8-C7-C4= 79.83            N9-S8-C7-C6=262.45            O16-S8-C7-C4=196.06           O16-S8-C7-C6= 18.68           
O17-S8-C7-C4=327.29           O17-S8-C7-C6=149.90           C10-N9-S8-C7= 55.56           C10-N9-S8-O16=296.94          
C10-N9-S8-O17=173.05          H24-N9-S8-C7=276.16           H24-N9-S8-O16=157.55          H24-N9-S8-O17= 33.65          
C11-C10-N9-S8= 38.89          C11-C10-N9-H24=177.99         N14-C10-N9-S8=217.43          N14-C10-N9-H24=356.53         
           -------------------------------------------------
          |                Final Singlepoint                |
           -------------------------------------------------

          ...................................................
          :                      SETUP                      :
          :.................................................:
          :  # basis functions                  85          :
          :  # atomic orbitals                  84          :
          :  # shells                           46          :
          :  # electrons                        90          :
          :  max. iterations                   250          :
          :  Hamiltonian                  GFN2-xTB          :
          :  restarted?                      false          :
          :  GBSA solvation                   true          :
          :  PC potential                    false          :
          :  electronic temp.          300.0000000     K    :
          :  accuracy                    0.2000000          :
          :  -> integral cutoff          0.3198970E+02      :
          :  -> integral neglect         0.2000000E-08      :
          :  -> SCF convergence          0.2000000E-06 Eh   :
          :  -> wf. convergence          0.2000000E-04 e    :
          :  Broyden damping             0.4000000          :
          :  net charge                          0          :
          :  unpaired electrons                  0          :
          ...................................................

 iter      E             dE          RMSdq      gap      omega  full diag
   1    -51.8745158 -0.518745E+02  0.261E-05    3.43       0.0  T
   2    -51.8745158 -0.873968E-12  0.168E-05    3.43    1127.7  T
   3    -51.8745158 -0.412115E-12  0.866E-06    3.43    2183.2  T

   *** convergence criteria satisfied after 3 iterations ***

         #    Occupation            Energy/Eh            Energy/eV
      -------------------------------------------------------------
         1        2.0000           -0.7945160             -21.6199
       ...           ...                  ...                  ...
        39        2.0000           -0.4431249             -12.0580
        40        2.0000           -0.4366292             -11.8813
        41        2.0000           -0.4237750             -11.5315
        42        2.0000           -0.4205320             -11.4433
        43        2.0000           -0.4195275             -11.4159
        44        2.0000           -0.4102410             -11.1632
        45        2.0000           -0.3748487             -10.2002 (HOMO)
        46                         -0.2487430              -6.7686 (LUMO)
        47                         -0.2401178              -6.5339
        48                         -0.2372911              -6.4570
        49                         -0.1832862              -4.9875
        50                         -0.1281773              -3.4879
       ...                                ...                  ...
        84                          1.1701181              31.8405
      -------------------------------------------------------------
                  HL-Gap            0.1261057 Eh            3.4315 eV
             Fermi-level           -0.3117959 Eh           -8.4844 eV

 SCC (total)                   0 d,  0 h,  0 min,  0.013 sec
 SCC setup                      ...        0 min,  0.000 sec (  3.207%)
 Dispersion                     ...        0 min,  0.000 sec (  0.783%)
 classical contributions        ...        0 min,  0.000 sec (  0.305%)
 integral evaluation            ...        0 min,  0.002 sec ( 18.682%)
 iterations                     ...        0 min,  0.002 sec ( 18.943%)
 molecular gradient             ...        0 min,  0.007 sec ( 56.936%)
 printout                       ...        0 min,  0.000 sec (  1.037%)

         :::::::::::::::::::::::::::::::::::::::::::::::::::::
         ::                     SUMMARY                     ::
         :::::::::::::::::::::::::::::::::::::::::::::::::::::
         :: total energy             -51.229448312938 Eh    ::
         :: total w/o Gsasa/hb       -51.219705808613 Eh    ::
         :: gradient norm              0.000624877743 Eh/a0 ::
         :: HOMO-LUMO gap              3.431511507255 eV    ::
         ::.................................................::
         :: SCC energy               -51.874057176116 Eh    ::
         :: -> isotropic ES            0.128103556773 Eh    ::
         :: -> anisotropic ES         -0.019516456165 Eh    ::
         :: -> anisotropic XC          0.021321151159 Eh    ::
         :: -> dispersion             -0.031408746261 Eh    ::
         :: -> Gsolv                  -0.046373482885 Eh    ::
         ::    -> Gelec               -0.036630978559 Eh    ::
         ::    -> Gsasa               -0.000734957901 Eh    ::
         ::    -> Ghb                 -0.010088306123 Eh    ::
         ::    -> Gshift               0.001080759698 Eh    ::
         :: repulsion energy           0.644608863177 Eh    ::
         :: add. restraining           0.000000000000 Eh    ::
         :: total charge              -0.000000000000 e     ::
         :::::::::::::::::::::::::::::::::::::::::::::::::::::

           ------------------------------------------------- 
          |                Numerical Hessian                |
           ------------------------------------------------- 
step length          :   0.00500
SCC accuracy         :   0.30000
Hessian scale factor :   1.00000
frozen atoms in %    :   0.00000    0
RMS gradient         :   0.00062
estimated CPU  time      0.04 min
estimated wall time      0.04 min

writing file <hessian>.

 projected vibrational frequencies (cm⁻¹)
eigval :       -0.00    -0.00    -0.00     0.00     0.00     0.00
eigval :        8.69    19.85    51.09    51.90    77.90    98.31
eigval :      128.68   141.23   159.22   209.28   232.06   264.72
eigval :      297.98   327.12   341.99   350.24   374.93   386.84
eigval :      400.27   463.71   486.65   489.80   490.59   561.30
eigval :      599.41   601.75   630.95   642.25   660.89   666.12
eigval :      724.68   792.35   795.83   821.34   849.12   851.74
eigval :      903.90   913.97   962.79   965.94   986.94  1004.46
eigval :     1024.02  1028.11  1054.50  1068.72  1104.78  1116.74
eigval :     1121.10  1160.98  1176.60  1185.47  1245.64  1252.51
eigval :     1319.17  1356.93  1379.40  1421.69  1422.44  1426.36
eigval :     1427.99  1435.75  1509.34  1528.72  1561.39  1581.48
eigval :     1594.21  3028.68  3040.74  3081.67  3100.48  3104.28
eigval :     3110.67  3116.55  3220.18  3434.49  3493.99  3561.42
           -------------------------------------------------
          |                Property Printout                |
           -------------------------------------------------

    * Orbital Energies and Occupations

         #    Occupation            Energy/Eh            Energy/eV
      -------------------------------------------------------------
         1        2.0000           -0.7945159             -21.6199
       ...           ...                  ...                  ...
        33        2.0000           -0.4832387             -13.1496
        34        2.0000           -0.4796261             -13.0513
        35        2.0000           -0.4725043             -12.8575
        36        2.0000           -0.4711982             -12.8220
        37        2.0000           -0.4662200             -12.6865
        38        2.0000           -0.4622122             -12.5774
        39        2.0000           -0.4431249             -12.0580
        40        2.0000           -0.4366292             -11.8813
        41        2.0000           -0.4237750             -11.5315
        42        2.0000           -0.4205320             -11.4433
        43        2.0000           -0.4195275             -11.4159
        44        2.0000           -0.4102410             -11.1632
        45        2.0000           -0.3748487             -10.2002 (HOMO)
        46                         -0.2487430              -6.7686 (LUMO)
        47                         -0.2401178              -6.5339
        48                         -0.2372911              -6.4570
        49                         -0.1832862              -4.9875
        50                         -0.1281773              -3.4879
        51                         -0.1272706              -3.4632
        52                         -0.0824609              -2.2439
        53                         -0.0760188              -2.0686
        54                         -0.0523735              -1.4252
        55                         -0.0258452              -0.7033
        56                          0.0279738               0.7612
       ...                                ...                  ...
        84                          1.1701181              31.8405
      -------------------------------------------------------------
                  HL-Gap            0.1261057 Eh            3.4315 eV
             Fermi-level           -0.3117959 Eh           -8.4844 eV

     #   Z          covCN         q      C6AA      α(0)
     1   7 N        2.645    -0.267    26.926     7.707
     2   6 C        2.896     0.101    25.772     8.324
     3   6 C        2.925    -0.066    29.639     8.928
     4   6 C        2.969    -0.033    28.829     8.807
     5   6 C        2.926    -0.067    29.673     8.933
     6   6 C        2.959    -0.031    28.783     8.800
     7   6 C        2.973    -0.117    30.972     9.129
     8  16 S        3.806     1.156   102.303    17.023
     9   7 N        2.689    -0.366    29.442     8.059
    10   6 C        3.082     0.147    24.730     8.152
    11   6 C        2.946    -0.112    30.844     9.109
    12   6 C        3.026     0.147    24.783     8.166
    13   8 O        1.819    -0.143    16.448     5.477
    14   7 N        1.937    -0.223    26.704     7.663
    15   6 C        3.754    -0.153    23.508     6.914
    16   8 O        0.860    -0.643    27.195     6.992
    17   8 O        0.860    -0.653    27.467     7.027
    18   1 H        0.861     0.233     0.954     1.530
    19   1 H        0.861     0.234     0.950     1.527
    20   1 H        0.926     0.076     2.026     2.226
    21   1 H        0.926     0.050     2.320     2.382
    22   1 H        0.926     0.077     2.008     2.216
    23   1 H        0.926     0.051     2.305     2.374
    24   1 H        0.862     0.248     0.893     1.480
    25   1 H        0.927     0.056     2.247     2.344
    26   1 H        0.925     0.092     1.859     2.132
    27   1 H        0.925     0.108     1.712     2.046
    28   1 H        0.925     0.103     1.757     2.073

 Mol. C6AA /au·bohr⁶  :      11453.166210
 Mol. C8AA /au·bohr⁸  :     293037.934859
 Mol. α(0) /au        :        167.537217


molecular dipole:
                 x           y           z       tot (Debye)
 q only:       -1.124       1.522      -4.851
   full:       -1.089       1.239      -4.527      12.246
molecular quadrupole (traceless):
                xx          xy          yy          xz          yz          zz
 q only:       45.378     -14.061      25.907     -13.855      22.122     -71.285
  q+dip:       45.717     -13.137      16.976     -14.042      18.222     -62.693
   full:       44.143     -13.488      18.809     -13.913      18.987     -62.952

           -------------------------------------------------
          |                Geometry Summary                 |
           -------------------------------------------------

      molecular mass/u    :      253.2778190
   center of mass at/Å    :       -0.5319289       1.1424763       4.7888035
  moments of inertia/u·Å² :        0.9362599E+03   0.1441924E+04   0.1962137E+04
rotational constants/cm⁻¹ :        0.1800529E-01   0.1169107E-01   0.8591464E-02

 * 29 selected distances

     #   Z          #   Z                                           value/Å
     1   7 N        2   6 C                                       1.3448591
     2   6 C        3   6 C                                       1.4088069
     3   6 C        4   6 C                                       1.3744231
     2   6 C        5   6 C                                       1.4083402
     5   6 C        6   6 C                                       1.3750140
     4   6 C        7   6 C                                       1.3868880
     6   6 C        7   6 C                                       1.3860396
     7   6 C        8  16 S                                       1.7591753 (max)
     8  16 S        9   7 N                                       1.6882441
     9   7 N       10   6 C                                       1.3726287
    10   6 C       11   6 C                                       1.4204726
    11   6 C       12   6 C                                       1.3646317
    12   6 C       13   8 O                                       1.3459074
    10   6 C       14   7 N                                       1.3152026
    13   8 O       14   7 N                                       1.3661483
    12   6 C       15   6 C                                       1.4793323
     8  16 S       16   8 O                                       1.4457044
     8  16 S       17   8 O                                       1.4465349
     1   7 N       18   1 H                                       1.0037724
     1   7 N       19   1 H                                       1.0032654 (min)
     3   6 C       20   1 H                                       1.0779444
     4   6 C       21   1 H                                       1.0780258
     5   6 C       22   1 H                                       1.0778872
     6   6 C       23   1 H                                       1.0774754
     9   7 N       24   1 H                                       1.0095751
    11   6 C       25   1 H                                       1.0674434
    15   6 C       26   1 H                                       1.0839912
    15   6 C       27   1 H                                       1.0876722
    15   6 C       28   1 H                                       1.0875826

 * 9 distinct bonds (by element types)

   Z      Z             #   av. dist./Å        max./Å        min./Å
   1 H    6 C           8     1.0797528     1.0876722     1.0674434
   6 C    6 C           9     1.4004387     1.4793323     1.3646317
   1 H    7 N           3     1.0055377     1.0095751     1.0032654
   6 C    7 N           3     1.3442301     1.3726287     1.3152026
   6 C    8 O           1     1.3459074     1.3459074     1.3459074
   7 N    8 O           1     1.3661483     1.3661483     1.3661483
   6 C   16 S           1     1.7591753     1.7591753     1.7591753
   7 N   16 S           1     1.6882441     1.6882441     1.6882441
   8 O   16 S           2     1.4461196     1.4465349     1.4457044

           -------------------------------------------------
          |               Frequency Printout                |
           -------------------------------------------------
 projected vibrational frequencies (cm⁻¹)
eigval :       -0.00    -0.00    -0.00     0.00     0.00     0.00
eigval :        8.69    19.85    51.09    51.90    77.90    98.31
eigval :      128.68   141.23   159.22   209.28   232.06   264.72
eigval :      297.98   327.12   341.99   350.24   374.93   386.84
eigval :      400.27   463.71   486.65   489.80   490.59   561.30
eigval :      599.41   601.75   630.95   642.25   660.89   666.12
eigval :      724.68   792.35   795.83   821.34   849.12   851.74
eigval :      903.90   913.97   962.79   965.94   986.94  1004.46
eigval :     1024.02  1028.11  1054.50  1068.72  1104.78  1116.74
eigval :     1121.10  1160.98  1176.60  1185.47  1245.64  1252.51
eigval :     1319.17  1356.93  1379.40  1421.69  1422.44  1426.36
eigval :     1427.99  1435.75  1509.34  1528.72  1561.39  1581.48
eigval :     1594.21  3028.68  3040.74  3081.67  3100.48  3104.28
eigval :     3110.67  3116.55  3220.18  3434.49  3493.99  3561.42
 reduced masses (amu)
   1: 14.33   2: 15.73   3: 15.73   4: 12.86   5: 15.52   6: 12.30   7: 10.43   8: 13.22
   9:  7.22  10:  5.16  11: 12.14  12: 13.14  13: 13.48  14:  7.17  15:  9.08  16: 11.26
  17: 13.48  18: 14.54  19: 14.40  20: 12.41  21: 15.95  22: 12.12  23:  8.56  24: 12.23
  25: 11.10  26: 12.66  27:  3.35  28: 14.26  29: 15.70  30: 10.36  31: 12.29  32: 11.28
  33: 10.64  34: 15.43  35: 11.12  36: 11.43  37: 13.81  38: 12.84  39:  5.12  40:  3.36
  41:  3.31  42: 11.46  43:  2.65  44:  3.78  45:  8.48  46:  4.38  47:  9.82  48:  8.62
  49:  4.64  50:  8.80  51: 14.30  52: 14.65  53:  6.65  54: 10.36  55:  2.66  56: 12.08
  57:  4.03  58: 17.66  59: 11.06  60:  3.38  61:  7.23  62: 11.27  63:  3.36  64:  5.40
  65:  9.91  66: 10.71  67:  1.63  68:  2.33  69: 10.91  70: 12.30  71: 11.70  72: 11.53
  73: 11.65  74:  1.94  75:  1.45  76:  1.78  77:  1.78  78:  1.79  79:  1.89  80:  1.88
  81:  1.92  82:  1.85  83:  1.43  84:  2.21
 IR intensities (km·mol⁻¹)
   1:  1.39   2:  1.95   3:  1.24   4:  1.15   5:  2.18   6:  1.48   7:  1.10   8:  5.39
   9:  3.06  10:  0.35  11:  1.50  12:  9.10  13:  3.06  14:222.10  15: 61.36  16: 13.55
  17: 12.22  18: 16.20  19:  1.27  20:  6.06  21: 16.08  22:  0.53  23:  0.52  24:  8.83
  25:  3.14  26: 40.42  27: 16.46  28:195.60  29:118.27  30:347.48  31:  2.47  32:  1.19
  33: 26.02  34:161.16  35: 24.71  36: 49.91  37:143.67  38:162.82  39: 35.69  40: 39.61
  41:  0.45  42: 29.77  43:  0.07  44:  0.25  45: 56.17  46:  6.65  47: 12.31  48: 15.03
  49: 12.78  50: 16.72  51:414.80  52:158.51  53: 40.84  54:357.58  55: 23.31  56:191.61
  57: 46.45  58:654.10  59: 88.74  60:  1.08  61:163.92  62:  9.95  63: 12.44  64:132.93
  65:302.67  66:  1.30  67: 15.85  68: 24.25  69:306.67  70:197.15  71: 21.75  72:664.72
  73:301.61  74:  1.66  75:  4.73  76:  6.08  77: 11.07  78: 22.13  79: 58.65  80: 27.91
  81:  6.02  82: 81.83  83:214.54  84: 66.78
 Raman intensities (Ä⁴*amu⁻¹)
   1:  0.00   2:  0.00   3:  0.00   4:  0.00   5:  0.00   6:  0.00   7:  0.00   8:  0.00
   9:  0.00  10:  0.00  11:  0.00  12:  0.00  13:  0.00  14:  0.00  15:  0.00  16:  0.00
  17:  0.00  18:  0.00  19:  0.00  20:  0.00  21:  0.00  22:  0.00  23:  0.00  24:  0.00
  25:  0.00  26:  0.00  27:  0.00  28:  0.00  29:  0.00  30:  0.00  31:  0.00  32:  0.00
  33:  0.00  34:  0.00  35:  0.00  36:  0.00  37:  0.00  38:  0.00  39:  0.00  40:  0.00
  41:  0.00  42:  0.00  43:  0.00  44:  0.00  45:  0.00  46:  0.00  47:  0.00  48:  0.00
  49:  0.00  50:  0.00  51:  0.00  52:  0.00  53:  0.00  54:  0.00  55:  0.00  56:  0.00
  57:  0.00  58:  0.00  59:  0.00  60:  0.00  61:  0.00  62:  0.00  63:  0.00  64:  0.00
  65:  0.00  66:  0.00  67:  0.00  68:  0.00  69:  0.00  70:  0.00  71:  0.00  72:  0.00
  73:  0.00  74:  0.00  75:  0.00  76:  0.00  77:  0.00  78:  0.00  79:  0.00  80:  0.00
  81:  0.00  82:  0.00  83:  0.00  84:  0.00
 output can be read by thermo (or use thermo option).
 writing <g98.out> molden fake output.
 recommended (thermochemical) frequency scaling factor: 1.0
           -------------------------------------------------
          |             Thermodynamic Functions             |
           -------------------------------------------------

Refinement of some symmetry elements was terminated before convergence was reached.
Some symmetry elements may remain unidentified.
Molecule has no symmetry elements
It seems to be the C1 point group
c1  symmetry found (for desy threshold:  0.10E+00) used in thermo

          ...................................................
          :                      SETUP                      :
          :.................................................:
          :  # frequencies                          78      :
          :  # imaginary freq.                       0      :
          :  linear?                             false      :
          :  only rotor calc.                    false      :
          :  symmetry                               c1      :
          :  rotational number                       1      :
          :  scaling factor                  1.0000000      :
          :  rotor cutoff                    0.0000000 cm⁻¹ :
          :  imag. cutoff                  -20.0000000 cm⁻¹ :
          :.................................................:

    mode    ω/cm⁻¹     T·S(HO)/kcal·mol⁻¹    T·S(FR)/kcal·mol⁻¹   T·S(vib)
   ------------------------------------------------------------------------
       1      8.69    -2.47190 (100.00%)    -1.57465 (  0.00%)    -2.47190
       2     19.85    -1.98237 (100.00%)    -1.33001 (  0.00%)    -1.98237
       3     51.09    -1.42364 (100.00%)    -1.05012 (  0.00%)    -1.42364
       4     51.90    -1.41428 (100.00%)    -1.04542 (  0.00%)    -1.41428
       5     77.90    -1.17564 (100.00%)    -0.92516 (  0.00%)    -1.17564
       6     98.31    -1.03984 (100.00%)    -0.85624 (  0.00%)    -1.03984
       7    128.68    -0.88421 (100.00%)    -0.77648 (  0.00%)    -0.88421
       8    141.23    -0.83099 (100.00%)    -0.74892 (  0.00%)    -0.83099
       9    159.22    -0.76298 (100.00%)    -0.71341 (  0.00%)    -0.76298
      10    209.28    -0.61120 (100.00%)    -0.63243 (  0.00%)    -0.61120
      11    232.06    -0.55545 (100.00%)    -0.60182 (  0.00%)    -0.55545
      12    264.72    -0.48611 (100.00%)    -0.56280 (  0.00%)    -0.48611
      13    297.98    -0.42582 (100.00%)    -0.52774 (  0.00%)    -0.42582
   ------------------------------------------------------------------------

   temp. (K)  partition function   enthalpy   heat capacity  entropy
                                   cal/mol     cal/K/mol   cal/K/mol   J/K/mol
 298.15  VIB  0.142E+08             8836.215     56.683     62.368
         ROT  0.393E+07              888.752      2.981     33.157
         INT  0.559E+14             9724.968     59.664     95.524
         TR   0.390E+28             1481.254      4.968     42.469
         TOT                       11206.2215    64.6317   137.9933   577.3640

       T/K    H(0)-H(T)+PV         H(T)/Eh          T*S/Eh         G(T)/Eh
   ------------------------------------------------------------------------
    298.15    0.178583E-01    0.219672E+00    0.655651E-01    0.154107E+00
   ------------------------------------------------------------------------

         :::::::::::::::::::::::::::::::::::::::::::::::::::::
         ::                  THERMODYNAMIC                  ::
         :::::::::::::::::::::::::::::::::::::::::::::::::::::
         :: total free energy         -51.075341531387 Eh   ::
         ::.................................................::
         :: total energy              -51.229448313628 Eh   ::
         :: zero point energy           0.201813608735 Eh   ::
         :: G(RRHO) w/o ZPVE           -0.047706826494 Eh   ::
         :: G(RRHO) contrib.            0.154106782241 Eh   ::
         :::::::::::::::::::::::::::::::::::::::::::::::::::::

optimized geometry written to: xtbopt.xyz


           -------------------------------------------------
          | TOTAL ENERGY              -51.229448313628 Eh   |
          | TOTAL ENTHALPY            -51.009776454266 Eh   |
          | TOTAL FREE ENERGY         -51.075341531387 Eh   |
          | GRADIENT NORM               0.000624925295 Eh/α |
          | HOMO-LUMO GAP               3.431512036144 eV   |
           -------------------------------------------------

------------------------------------------------------------------------
 * finished run on 2026/07/25 at 12:24:00.238     
------------------------------------------------------------------------
 total:
 * wall-time:     0 d,  0 h,  0 min,  2.890 sec
 *  cpu-time:     0 d,  0 h,  0 min,  2.847 sec
 * ratio c/w:     0.985 speedup
 SCF:
 * wall-time:     0 d,  0 h,  0 min,  0.022 sec
 *  cpu-time:     0 d,  0 h,  0 min,  0.021 sec
 * ratio c/w:     0.997 speedup
 ANC optimizer:
 * wall-time:     0 d,  0 h,  0 min,  0.299 sec
 *  cpu-time:     0 d,  0 h,  0 min,  0.298 sec
 * ratio c/w:     0.996 speedup
 analytical hessian:
 * wall-time:     0 d,  0 h,  0 min,  2.560 sec
 *  cpu-time:     0 d,  0 h,  0 min,  2.519 sec
 * ratio c/w:     0.984 speedup

normal termination of xtb
Note: The following floating-point exceptions are signalling: IEEE_DIVIDE_BY_ZERO IEEE_UNDERFLOW_FLAG
