28
SMX conformer C; Blackmon and Closser (2026) supplement
N   0.4066444000  0.5066115000 -0.8116361000
C   1.7329319000  0.3353603000 -0.5407185000
C   2.2526296000  0.6533274000  0.7307647000
C   3.5979744000  0.5173938000  0.9940737000
C   2.6178246000 -0.1217008000 -1.5353015000
C   3.9654232000 -0.2561870000 -1.2713440000
C   4.4613870000  0.0565051000 -0.0043694000
S   6.1696650000 -0.0607322000  0.3239994000
N   6.7872759000  1.4986885000  0.2621024000
C   6.6049786000  2.2978055000 -0.8625350000
C   6.6527062000  1.9175631000 -2.2310039000
C   6.4521986000  3.0815103000 -2.9000483000
O   6.3021614000  4.0908196000 -2.0178634000
N   6.3852164000  3.5829193000 -0.7109895000
C   6.3747495000  3.4206502000 -4.3383814000
O   6.3895653000 -0.4525651000  1.6934801000
O   6.8004996000 -0.7925580000 -0.7440555000
H  -0.2312889000  0.6079246000 -0.0388077000
H   0.0234491000  0.0613805000 -1.6298061000
H   1.5812489000  1.0032067000  1.5047700000
H   3.9830721000  0.7624350000  1.9747300000
H   2.2313899000 -0.3707259000 -2.5155298000
H   4.6355059000 -0.6097238000 -2.0416063000
H   6.6570369000  1.9867618000  1.1428416000
H   6.8119576000  0.9384142000 -2.6415648000
H   6.5148161000  2.5221451000 -4.9356518000
H   7.1439919000  4.1481755000 -4.6046504000
H   5.4024688000  3.8566155000 -4.5768002000
